78
N16 tacrine microhydration cluster; source_frame=1411; time_ps=1413.822000; n_waters=16; atoms=78; max_selected_waterO_min_distance_A=3.653292; selection=nearest_16_water_oxygens_to_tacrine_heavy_atoms
N   0.10436344 -0.63744407 -1.36760136
N  -0.11977577  1.28718109  2.36087707
C  -2.16986752  2.98777552 -0.98706814
C  -1.54041195  2.39590068  0.23510078
C  -1.29216957  2.76591368 -2.29611203
C  -0.65647030  1.15155525  0.04420474
C  -1.14104843  1.22109194 -2.52002474
C  -0.47702789  0.61099954 -1.28493306
C  -0.03055859  0.54912276  1.17236808
C   0.61273003 -0.78106027  1.01218894
C   0.65374470 -1.34312539 -0.29288289
C   1.25485229 -1.53907685  2.07277778
C   1.27266788 -2.55259995 -0.50987622
C   1.74118519 -2.83506923  1.84375194
C   1.78778648 -3.28116469  0.51722911
H  -3.13578606  2.49102278 -1.07837674
H  -2.36355686  4.02621789 -0.71832558
H  -0.89018536  3.17557497  0.63185314
H  -2.27106762  2.24023242  1.02883247
H  -1.61847687  3.25157542 -3.21576258
H  -0.29531097  3.18547721 -2.16068646
H  -1.97575283  0.80080791 -3.08103415
H  -0.42422295  1.07660623 -3.32834670
H   1.05775928 -1.15700536  3.06352332
H   1.48399353 -2.92778640 -1.50031945
H  -0.03096008  0.69860024  3.17683318
H  -0.66962433  2.13079162  2.43889716
H   2.01341915 -3.43565850  2.69907764
H   2.04214668 -4.32021909  0.36867812
H   0.13240910 -1.05701070 -2.28590295
O   0.56835365 -1.72287517 -3.88732192
H   0.80950451 -2.69069390 -3.95924279
H   0.30562592 -1.37700562 -4.78807065
O   2.06816769  3.08403144  1.50769904
H   1.92945766  2.21500276  1.98261836
H   1.69050121  3.82864187  2.05808357
O  -1.70747852  3.78200073  3.16249755
H  -2.28948784  4.12897040  3.89794162
H  -0.77560043  4.12318100  3.28578189
O  -2.70307732 -1.77125983 -1.98930260
H  -2.29242420 -2.64322190 -1.72275731
H  -3.54946613 -1.63059716 -1.47565076
O  -2.17337608 -2.21959262  0.77905467
H  -3.01691151 -1.79229646  0.45368484
H  -2.03086281 -1.98592095  1.74086860
O   4.83437824 -3.08740907 -0.33822247
H   5.33769989 -3.79378276  0.15947631
H   4.35159492 -3.50276284 -1.10919758
O  -1.53824043 -1.92625957  3.53493694
H  -1.08249950 -1.18019681  4.02041725
H  -1.82876396 -2.62260633  4.19121269
O   0.12785339 -0.08252530  5.23068050
H  -0.04481602  0.01356573  6.21096137
H   1.09145355 -0.30484204  5.08218578
O   2.67938995 -0.84314494  4.98404792
H   3.12636185 -1.72498612  5.13428500
H   3.04760551 -0.41953783  4.15641597
O   3.72282696  0.54887314  2.87274555
H   4.52732277  1.06337352  3.16952232
H   3.81999397  0.30581350  1.90761283
O  -3.84117794  4.34019823  1.69055465
H  -4.15985394  3.52884347  2.18060497
H  -2.91051769  4.56147118  1.98194602
O   3.39585400 -4.01060681 -2.71553704
H   4.02952957 -4.67677789 -3.10881850
H   2.55936241 -3.98286061 -3.26281497
O  -0.50724411 -5.43349080  2.20380977
H  -1.35044765 -5.09590917  1.78542426
H   0.19586849 -4.72402959  2.15588096
O  -1.83976078 -4.30612760 -0.83042809
H  -0.90808392 -4.64122491 -0.97074315
H  -1.84233665 -3.62531095 -0.09797856
O  -3.39436913  0.98631425 -5.38150069
H  -2.63275337  1.27494664 -5.96170112
H  -3.36609077 -0.00632124 -5.26370761
O   3.03217888 -6.20426660  2.41680339
H   2.17403221 -6.71669679  2.44841102
H   3.56005955 -6.38666444  3.24630550
