78
N16 tacrine microhydration cluster; source_frame=8972; time_ps=8989.944000; n_waters=16; atoms=78; max_selected_waterO_min_distance_A=3.705012; selection=nearest_16_water_oxygens_to_tacrine_heavy_atoms
N   0.76832223  0.57178463  1.16103525
N  -1.26989412 -0.96133445 -2.09278636
C  -3.52840972  0.56022729  1.21338959
C  -2.85048914  0.42659153 -0.06668882
C  -2.83149767  1.65451063  2.05626316
C  -1.30145359  0.21780695 -0.03008871
C  -1.31048989  1.35311522  2.32431908
C  -0.58811187  0.64947523  1.14693279
C  -0.53324413 -0.43678771 -1.01858263
C   0.82638480 -0.62406860 -0.84531908
C   1.48644233 -0.02166997  0.21832867
C   1.60526771 -1.33428512 -1.82209020
C   2.88427544 -0.01083337  0.24967165
C   2.99211741 -1.37277709 -1.76113110
C   3.65078020 -0.67175518 -0.73325329
H  -4.57951426  0.78896655  1.03744335
H  -3.49233985 -0.37192689  1.77720470
H  -3.34948659 -0.30652223 -0.70044451
H  -2.98738599  1.36298145 -0.60755186
H  -2.84854221  2.64042343  1.59173555
H  -3.24909615  1.67689575  3.06284637
H  -0.79987216  2.25571407  2.66000576
H  -1.13924157  0.62626208  3.11833305
H   1.11318374 -1.88752900 -2.60833101
H   3.48261428  0.44300093  1.02583237
H  -2.26481223 -0.90279625 -1.92904620
H  -0.98739910 -0.56285535 -2.97681742
H   3.58410144 -1.97343384 -2.43579154
H   4.73066235 -0.65582393 -0.73323946
H   1.19243086  0.73737730  2.06259508
O   2.06879272  0.69025339  3.55346889
H   2.56670071  1.48964132  3.21721668
H   2.59846010  0.24777784  4.27711792
O  -0.59353862  0.32217516 -4.55340211
H  -0.82231067 -0.56567822 -4.95262616
H   0.31332983  0.60456862 -4.86620151
O  -2.37125979 -3.85846327 -2.83532910
H  -3.02769409 -3.12291156 -2.66782479
H  -1.47057806 -3.58462493 -2.49800806
O  -6.18806420 -1.17803453  2.18102236
H  -5.52958880 -0.98172699  2.90757103
H  -6.83514033 -0.41953312  2.10376806
O  -0.52580426  4.00588860  0.41659327
H  -1.10452924  4.81076636  0.54792805
H  -0.59168301  3.69934954 -0.53298216
O   0.17845206 -3.98316882 -0.26032524
H   0.84860717 -3.56158166  0.35054035
H  -0.71031423 -3.54219668 -0.13527327
O  -1.78899727 -1.96646605 -5.30114498
H  -1.75206481 -2.96375810 -5.36474063
H  -2.66072498 -1.64116393 -5.66757264
O   1.65726425  2.29774679 -2.39650230
H   0.83332505  2.86115088 -2.45732956
H   1.72188331  1.71331371 -3.20536714
O   6.09504690  0.87886562  1.09640570
H   7.06504764  0.65163387  1.18280478
H   5.99665441  1.85792126  0.91816635
O   3.18771281  2.76597275  2.29346104
H   2.46766557  3.38656344  2.60394306
H   3.49084629  3.03758158  1.38003941
O  -4.46561013 -0.45209132  4.41053123
H  -4.96368228 -1.11370335  4.97106094
H  -4.82467948  0.46568383  4.58011265
O  -5.70437441  1.99266161  4.00418301
H  -5.71917401  2.71211065  4.69856949
H  -6.18255673  2.30995144  3.18523903
O  -2.06648193 -3.10341336  0.73631687
H  -2.20753227 -2.96763836  1.71696491
H  -2.93950544 -3.32405113  0.30140419
O  -0.04881249  0.37594546  5.60717697
H  -0.20143680 -0.56674062  5.90390701
H   0.60184200  0.38516893  4.84785862
O  -4.26474581  3.53529181 -1.43648510
H  -4.38406859  4.33184065 -2.02916675
H  -4.68470584  2.73520579 -1.86484914
O   0.82292027  4.36105456  2.68205376
H   0.54997593  4.16527142  1.74015589
H   0.04982764  4.75688900  3.17767735
