78
N16 tacrine microhydration cluster; source_frame=5746; time_ps=5757.492000; n_waters=16; atoms=78; max_selected_waterO_min_distance_A=3.679007; selection=nearest_16_water_oxygens_to_tacrine_heavy_atoms
N   1.39309403 -0.30167917  0.30526508
N  -2.54354742  0.38468405 -0.71066510
C   0.53292700  3.45269915 -1.42751204
C  -0.54384235  2.40587947 -1.56529271
C   1.98227784  2.93451735 -1.52213990
C  -0.26751664  1.10521361 -0.72656762
C   2.24791047  1.88708731 -0.47826134
C   1.10281607  0.82732817 -0.37914216
C  -1.22828606  0.14780566 -0.34572779
C  -0.90819887 -1.01666692  0.37051929
C   0.48440406 -1.21952489  0.68862642
C  -1.79251960 -2.02916768  0.81184400
C   0.91348597 -2.26776937  1.46863283
C  -1.36953476 -3.11179784  1.56362356
C  -0.00346974 -3.19860891  1.94679750
H   0.54406044  4.23504588 -2.18639981
H   0.27300736  3.78510710 -0.42250096
H  -1.56431130  2.74607703 -1.38920104
H  -0.53838900  2.12220618 -2.61771857
H   2.03322407  2.38770339 -2.46368014
H   2.77273747  3.68369338 -1.47731816
H   3.26058098  1.49645087 -0.57827222
H   2.30575844  2.30551097  0.52656473
H  -2.84411290 -1.82739976  0.67098296
H   1.95839116 -2.36314061  1.72451700
H  -2.81382182  1.26144644 -1.13296639
H  -3.24002174 -0.29920915 -0.45121609
H  -2.16039017 -3.72121051  1.97540510
H   0.30380460 -4.05940631  2.52213300
H   2.36562630 -0.53106454  0.45244897
O   3.96941468 -0.60893014  1.36714614
H   4.52905938 -0.01904443  1.94923890
H   4.30615660 -1.54885248  1.42328418
O  -5.09250334 -0.71546415  0.46789993
H  -5.91431621 -1.23190835  0.22725499
H  -4.99871710 -0.68296865  1.46296180
O  -1.29261974  0.93072840  2.72158254
H  -1.55948094  1.85288188  3.00161303
H  -2.11227861  0.38434359  2.54946698
O  -0.12159875 -1.14874223  4.32539678
H   0.86540314 -1.13114026  4.16565491
H  -0.56133154 -0.44057134  3.77301253
O  -3.61832449 -0.35298398  2.96595920
H  -4.11493209  0.30654952  3.53022517
H  -3.55962101 -1.22693113  3.44842161
O   0.05227873  6.45356795 -0.15265834
H  -0.93897680  6.38167712 -0.26331174
H   0.32606408  6.00521514  0.69823612
O   2.31435439  3.78655287 -4.72159850
H   3.27586838  3.62020251 -4.50292575
H   1.92765853  2.97626731 -5.16194331
O  -1.48172894 -2.71363595 -2.52024733
H  -0.66290620 -3.27884200 -2.62060630
H  -2.13973955 -3.18189672 -1.93054043
O   1.52776810 -6.21274474  2.64357532
H   0.56971046 -6.37368348  2.88069118
H   2.03884694 -7.06870225  2.72190321
O  -4.02335361 -1.19252446 -3.40387427
H  -3.03195700 -1.14730981 -3.28103911
H  -4.36762861 -2.05061868 -3.02288901
O   0.21906659 -3.48881439  5.42090169
H  -0.04217985 -2.68831971  4.88149528
H   1.15259668 -3.37211946  5.75987647
O  -5.46006659  0.97858664 -2.73097693
H  -6.38246587  0.60382411 -2.63753020
H  -4.80052450  0.22941062 -2.79213416
O   4.17924067 -0.69021371 -2.21801840
H   4.34384247 -0.81149915 -1.23914324
H   4.59948155  0.16429946 -2.52331244
O  -2.64296115 -5.18580774 -1.18878638
H  -2.73719128 -6.14860156 -0.93551051
H  -1.67330980 -4.95758441 -1.27648102
O   5.08144375  4.52528140 -2.69572436
H   4.39887330  5.25368354 -2.75512206
H   5.89970395  4.87185904 -2.23710238
O   3.24408957 -5.04384664  0.83873475
H   2.51208302 -5.28676513  1.47525371
H   3.19384810 -5.63316873  0.03239978
