78
N16 tacrine microhydration cluster; source_frame=8670; time_ps=8687.340000; n_waters=16; atoms=78; max_selected_waterO_min_distance_A=3.735146; selection=nearest_16_water_oxygens_to_tacrine_heavy_atoms
N   0.24365300 -1.40666291  0.21248105
N  -1.19597799  2.45367244 -0.03563592
C   1.62489169  1.35147289  3.07007340
C   0.33515137  1.66578344  2.33623722
C   1.46370643 -0.14906499  3.48436097
C   0.08744353  0.76986507  1.11995104
C   1.38086646 -1.17605874  2.37344173
C   0.52217215 -0.59232613  1.26314047
C  -0.51695568  1.17230323 -0.05578348
C  -0.61311609  0.31239894 -1.22535965
C  -0.16618282 -1.04876515 -1.00957367
C  -1.11694652  0.63669780 -2.51119730
C  -0.25220567 -2.01483246 -2.09174081
C  -1.10600835 -0.32219884 -3.56155321
C  -0.69049150 -1.65228459 -3.36884185
H   2.50523012  1.57925657  2.46905855
H   1.61809128  1.95802644  3.97569278
H  -0.52350933  1.49303916  2.98505238
H   0.38425177  2.73388007  2.12443772
H   2.33709377 -0.34594247  4.10607937
H   0.67911452 -0.50972840  4.14952067
H   2.42441886 -1.26762101  2.07225254
H   0.98178857 -2.14005276  2.68896106
H  -1.31440145  1.68397525 -2.68618557
H  -0.00213510 -3.04084870 -1.86556741
H  -1.91463024  2.67414573 -0.71019527
H  -1.28137380  2.87776187  0.87702826
H  -1.42425567 -0.06263634 -4.56042525
H  -0.59551698 -2.35975835 -4.17931124
H   0.32332629 -2.39967343  0.37886098
O   0.41273230 -4.14172932  0.75399044
H   0.83473891 -4.96445080  0.37314823
H  -0.43617231 -4.38841626  1.22143749
O  -3.38511497  3.35129264 -1.64581463
H  -3.49454147  4.13150695 -1.02994844
H  -4.11764175  2.69091419 -1.48057434
O  -3.16121275  4.70622352  1.02072147
H  -2.22433502  4.98429492  1.23270586
H  -3.70985443  4.71875909  1.85668507
O   0.47867792  4.22178033 -2.21453258
H   0.99307221  3.80541232 -1.46484205
H  -0.13386327  4.92286638 -1.84946939
O  -2.73125345  2.90375999 -4.28086731
H  -2.88346368  3.06253389 -3.30535576
H  -3.21474678  2.07516816 -4.56312629
O  -2.64481908 -2.48562237  1.45439652
H  -2.20316774 -2.72657105  2.31862310
H  -2.31150419 -3.08919713  0.73010424
O  -3.57707245 -0.19657132  0.53302220
H  -3.16185695 -1.08265683  0.73905233
H  -3.74187118  0.30045894  1.38496235
O   1.87070173  3.97143272  0.06317738
H   2.53429025  3.22334150  0.05998376
H   1.89477318  4.43455461  0.94914487
O  -1.15252906 -3.31563851  3.44733423
H  -0.42004186 -3.18734357  4.11591751
H  -1.12103635 -4.25048539  3.09368351
O   0.85262316 -2.45966241  6.03310350
H   0.23554629 -1.81249139  6.48074654
H   1.80003613 -2.18547246  6.19811347
O   3.65391856 -3.43291756  3.76929888
H   4.13242477 -2.77774140  3.18468240
H   4.27919960 -3.77049538  4.47290710
O  -4.26248867  0.69784263 -4.68565342
H  -4.06865532  0.12917045 -5.48505470
H  -4.84875805  0.19323257 -4.05188915
O   0.88452190  2.23937038 -5.03191063
H   0.89953917  2.98242334 -5.70097515
H   0.50274103  2.57420352 -4.17044040
O   4.41282978  3.19819549  4.38437775
H   5.28240171  3.65066102  4.58216468
H   3.82918241  3.81438831  3.85554698
O  -0.82421524  5.37459615  2.23744968
H  -1.04267914  5.38681367  3.21321818
H  -0.34518320  6.21754030  1.99255505
O  -2.78046257 -4.38399502 -4.82523891
H  -3.08807546 -5.26460454 -5.18565628
H  -3.22858650 -4.20765206 -3.94883272
