78
N16 tacrine microhydration cluster; source_frame=1713; time_ps=1716.426000; n_waters=16; atoms=78; max_selected_waterO_min_distance_A=3.810460; selection=nearest_16_water_oxygens_to_tacrine_heavy_atoms
N  -0.06633269  1.23722274 -0.82069168
N   0.09616960 -2.36412614  1.21471920
C   3.53551305 -0.92971605 -0.65624676
C   2.23444951 -1.70218080 -0.58323059
C   3.45451654  0.10840422 -1.76096437
C   1.00843633 -0.77578443 -0.28594933
C   2.16217626  1.06593806 -1.69853804
C   0.98024953  0.47207076 -0.89249859
C  -0.06291472 -1.14226430  0.51251545
C  -1.14777362 -0.23003381  0.72275438
C  -1.17922103  0.93522460 -0.06040869
C  -2.23552787 -0.51035493  1.52501049
C  -2.30045973  1.82071120  0.00926390
C  -3.20833193  0.45362860  1.78983250
C  -3.27094924  1.56126029  0.98443213
H   3.78403390 -0.34381955  0.22866168
H   4.38232339 -1.59836477 -0.81091080
H   2.09425939 -2.37596410 -1.42848930
H   2.34532369 -2.35489553  0.28266182
H   4.38022912  0.67512614 -1.86087904
H   3.46081270 -0.46395772 -2.68857512
H   2.41955388  2.01032263 -1.21896014
H   1.82567705  1.18933398 -2.72792730
H  -2.28580748 -1.45382970  2.04820099
H  -2.39111411  2.73964316 -0.55086694
H  -0.86766326 -2.61018174  1.38959684
H   0.62079347 -2.99605649  0.62689891
H  -4.03961836  0.32000357  2.46622553
H  -4.17835414  2.13970286  0.89267054
H  -0.14956843  2.15455729 -1.23502133
O   0.70848096 -4.54072088 -0.29728208
H   0.80487645 -5.26244634  0.38815250
H   1.32245839 -4.72565645 -1.06463513
O  -0.06301581  4.10814864 -1.74607847
H  -0.12895476  5.09564120 -1.60286555
H  -0.47478091  3.87071520 -2.62589351
O  -2.21130072 -3.91211217  2.43385115
H  -2.33012377 -3.93269437  3.42655315
H  -2.32457053 -4.83483213  2.06539764
O   1.70769323 -2.54753774  3.80978622
H   2.51597894 -1.95967191  3.77680292
H   1.22835553 -2.50464242  2.93320456
O  -5.48221814  3.35081965 -0.59583411
H  -4.71046483  3.47414023 -1.21968398
H  -6.22006261  2.86986071 -1.06939898
O  -6.23722111  1.25150019  3.33367720
H  -6.48316847  0.86615950  2.44428291
H  -7.06536233  1.54990679  3.80816164
O   6.63285793 -0.66704362  0.94932070
H   7.20025266  0.06465155  0.57158341
H   6.30596650 -0.40094274  1.85614576
O   5.24442304 -2.46579831 -3.49893651
H   5.89293016 -2.16168969 -4.19675848
H   4.33074296 -2.53315252 -3.89975235
O   2.33924783 -4.94657701 -2.16134892
H   2.39321721 -5.41321462 -3.04414914
H   3.18123544 -5.10849374 -1.64672372
O  -3.96257006  3.11362845 -2.96294062
H  -3.07848822  3.24532515 -3.41133284
H  -4.23037898  2.15248686 -3.02991553
O  -4.84062230 -0.49467271  4.99315252
H  -5.26010548  0.25315005  4.47857084
H  -5.22983395 -0.52520746  5.91379538
O   2.96241010 -4.63914960  2.03369179
H   2.02257074 -4.46274179  2.32623472
H   3.45699037 -5.10764020  2.76574841
O  -4.53904854  3.31320006  4.05978765
H  -5.21470391  2.64315421  3.75233212
H  -5.00825535  4.13194853  4.39068689
O  -1.13088404  2.99792201 -3.97266994
H  -1.13110148  2.04059226 -4.26166830
H  -1.24176013  3.58761508 -4.77265046
O   2.80458177 -1.82351774 -4.93071125
H   1.91686929 -1.93437665 -4.48385904
H   2.66644586 -1.59871476 -5.89527426
O  -6.93238532  0.22949225  1.01472416
H  -6.99168097  0.75759226  0.16761484
H  -6.69991147 -0.71922010  0.80048146
