78
N16 tacrine microhydration cluster; source_frame=1310; time_ps=1312.620000; n_waters=16; atoms=78; max_selected_waterO_min_distance_A=3.816304; selection=nearest_16_water_oxygens_to_tacrine_heavy_atoms
N  -1.17466939 -0.72509734 -0.58935394
N   1.85984790  1.55164703  1.11655579
C   1.27692115  1.52302345 -3.21761408
C   1.35819327  1.90294774 -1.71094170
C  -0.19624341  1.40724452 -3.51958885
C   0.55524050  0.88501914 -0.82503929
C  -0.90454686  0.21644529 -2.78435125
C  -0.46402562  0.14645799 -1.36963787
C   0.83260428  0.71827348  0.53834114
C   0.20611750 -0.26341883  1.34179554
C  -0.84424604 -1.01421515  0.70696983
C   0.53518855 -0.58337180  2.74941120
C  -1.59707750 -1.96466986  1.41006813
C  -0.18002046 -1.57958190  3.37659035
C  -1.26328386 -2.22070376  2.77679501
H   1.77521121  2.22434362 -3.88690891
H   1.73533522  0.55285486 -3.40926208
H   2.43538844  1.84302553 -1.55550661
H   1.03692805  2.93965753 -1.61033239
H  -0.65019143  2.36956294 -3.28299990
H  -0.47144712  1.12134012 -4.53478422
H  -1.96721948  0.44339593 -2.86991968
H  -0.77592290 -0.72971408 -3.31003132
H   1.32095420 -0.09778182  3.30903206
H  -2.38155092 -2.49248282  0.88813457
H   2.35323130  1.37752946  1.98047504
H   2.06972300  2.41483386  0.63597069
H   0.13706767 -1.75682990  4.39366398
H  -1.79990304 -3.04250018  3.22745094
H  -1.86049665 -1.27957980 -1.08158340
O  -2.08508409 -2.84512679 -2.00971785
H  -2.31118310 -2.47786585 -2.91193619
H  -1.25017560 -3.39196746 -2.07211103
O   3.59848010  1.62980636  3.59254608
H   3.94964396  0.82920678  4.07806168
H   3.88655841  2.46093877  4.06818161
O   3.65643870 -0.70553462 -0.03665676
H   3.41851317  0.25378545  0.11531982
H   4.61360680 -0.77090708 -0.31871071
O  -2.23970521 -0.85114352  5.61705551
H  -1.63566411 -0.39837042  6.27290020
H  -2.11354268 -1.84138457  5.67626724
O  -2.04196943 -3.74842040  5.53641186
H  -2.63459028 -4.33532206  6.08808956
H  -1.09883893 -4.07512824  5.59778748
O   2.80566584 -2.49616687  4.45765457
H   3.02436244 -2.38630168  3.48806629
H   1.92661940 -2.96384494  4.55015430
O   2.98162829  1.27348979 -6.09761562
H   3.24134909  2.05349286 -5.52828279
H   3.53489672  1.26995452 -6.93061104
O   2.51936709  4.97060045  1.70441971
H   1.94491755  4.42121013  2.31119595
H   2.22402655  5.92533215  1.73993263
O   1.87936103 -2.73575656 -0.78031769
H   1.16844165 -2.63058249 -0.08495274
H   2.64868342 -2.13461749 -0.56404343
O   0.65701186 -4.42635791  5.53739319
H   0.52098929 -5.23929946  4.97115574
H   0.91632544 -4.70403639  6.46240721
O  -3.74317945  1.87039407 -4.45564642
H  -3.51188196  0.93514808 -4.72363272
H  -3.39660943  2.50929244 -5.14244928
O   0.86181723 -0.19828765 -6.67381873
H   0.86470973 -1.09136264 -6.22391977
H   1.67525279  0.31520398 -6.40060058
O   0.70321738  3.97474702  3.67281113
H  -0.04461778  3.44637473  3.27085838
H   0.54233729  4.08735402  4.65334091
O  -4.45871747 -4.04506175  3.34538517
H  -5.39223111 -4.25865046  3.63336239
H  -3.84224523 -4.12241713  4.12895260
O   0.29083811 -3.33701483 -2.91145315
H   0.84512984 -2.96970908 -2.16456213
H   0.82724177 -3.33780448 -3.75541439
O  -4.90498651 -2.88606993 -0.25514545
H  -4.57086099 -2.99592368 -1.19125023
H  -5.64034856 -2.20854155 -0.24106541
