78
N16 tacrine microhydration cluster; source_frame=4637; time_ps=4646.274000; n_waters=16; atoms=78; max_selected_waterO_min_distance_A=3.692864; selection=nearest_16_water_oxygens_to_tacrine_heavy_atoms
N   1.28449367  0.53974727  0.31058114
N  -2.31167485 -1.14352461 -0.65155370
C   0.00986741 -2.44716117  2.79763429
C  -1.06130435 -1.92937323  1.85005276
C   0.98109220 -1.42324111  3.40511959
C  -0.42406394 -1.00866696  0.84144752
C   1.75807308 -0.77101323  2.21017759
C   0.87026285 -0.41891953  1.10367422
C  -1.11827447 -0.59258649 -0.33108695
C  -0.55485655  0.48321298 -1.12885554
C   0.69109081  1.01386884 -0.79461796
C  -1.23402335  1.00725702 -2.27497847
C   1.23719333  2.07557681 -1.58084519
C  -0.67057349  2.03786853 -3.09141095
C   0.54269765  2.57695487 -2.66533835
H  -0.51024462 -2.74002763  3.70967190
H   0.55455182 -3.31677124  2.42994158
H  -1.58868720 -2.77882835  1.41600935
H  -1.79540278 -1.19441649  2.18026083
H   0.40676282 -0.65209624  3.91852133
H   1.68244289 -1.79078480  4.15419762
H   2.29043315  0.13956073  2.48503797
H   2.54343627 -1.39218899  1.77954416
H  -2.22323348  0.63986209 -2.50494511
H   2.12068771  2.56282523 -1.19558461
H  -2.73687913 -1.96845385 -0.25306494
H  -2.85249592 -0.66968533 -1.36084135
H  -1.04257132  2.49832824 -3.99473484
H   0.95770334  3.32091716 -3.32918389
H   2.16738914  0.96467212  0.55559890
O   3.52313541  2.09783557  1.54802482
H   4.07926677  2.22973731  2.36858516
H   3.37140582  2.98030666  1.10280316
O   1.90294479  1.03312162 -4.99817736
H   2.05179618  1.59432605 -5.81235964
H   2.73242591  1.02947954 -4.43965466
O  -4.08058931 -1.27498576 -3.28423054
H  -4.95020618 -0.87436625 -2.99566348
H  -3.87688400 -0.99011466 -4.22090132
O  -4.00307228  2.50951293 -3.76665766
H  -3.94962145  1.64212039 -4.26140387
H  -3.86644651  3.26660159 -4.40552361
O   2.19372867  5.57497409 -3.04579909
H   2.38595413  6.54760459 -3.17633755
H   2.09739230  5.38238433 -2.06926043
O   2.70938323 -2.90636179 -0.42594082
H   3.14842342 -3.25435182  0.40239875
H   2.01464580 -3.55665085 -0.73329051
O  -2.99619080 -4.33114883  3.42054288
H  -3.94776394 -4.50309512  3.67538207
H  -2.64584519 -3.55485341  3.94458835
O   3.90910266 -0.64744755 -1.63419564
H   3.26234458 -1.30285069 -1.24413116
H   4.27372096 -0.06588885 -0.90697939
O  -0.99967124  1.56391433 -6.52061636
H  -0.36159541  0.96233228 -6.04003508
H  -0.82258345  2.51323894 -6.26095660
O  -4.55461647  1.54776576 -1.21959121
H  -5.03993143  0.67455343 -1.26397784
H  -4.30410816  1.83720687 -2.14342482
O  -0.02312829 -0.80909964 -5.12336905
H   0.90555356 -0.46931264 -4.97472508
H  -0.18153264 -1.60983035 -4.54566796
O   1.49876808 -4.11725661  5.69039958
H   0.71052097 -3.66447374  6.10711830
H   1.19635986 -4.65645572  4.90438836
O   4.18973277  1.56687930 -3.56703217
H   4.20018886  0.80373624 -2.92088730
H   4.55459903  2.38498691 -3.12254126
O  -4.11244513  0.67708209  1.90250521
H  -4.92421867  0.47324899  2.44974922
H  -4.11066891  0.10437587  1.08274667
O   3.83067630 -3.43727442  4.47949212
H   4.36324333 -2.73870989  4.95738308
H   3.01610683 -3.65985724  5.01515381
O   0.08697007  2.37951568  3.38237088
H   0.12246059  3.37327197  3.27659713
H  -0.86420895  2.07366851  3.34094124
