78
N16 tacrine microhydration cluster; source_frame=0; time_ps=0.000000; n_waters=16; atoms=78; max_selected_waterO_min_distance_A=3.809373; selection=nearest_16_water_oxygens_to_tacrine_heavy_atoms
N   1.35438309  0.24570602  0.53846539
N  -2.54266395 -0.25524396 -0.78412365
C  -0.79715194 -2.95861918  2.12868239
C  -1.65827193 -1.72589201  1.65517236
C   0.36950306 -2.41013295  3.04144419
C  -0.76454796 -0.72986895  0.84264840
C   1.27652905 -1.55756992  2.13890542
C   0.58912406 -0.57088697  1.17313643
C  -1.25722994 -0.02159298 -0.28898357
C  -0.38960292  0.83875805 -1.05129658
C   0.95714901  0.99831003 -0.54323660
C  -0.70698585  1.51400703 -2.24187337
C   1.87486110  1.81378108 -1.24952458
C   0.19405804  2.34275192 -2.93615972
C   1.50084708  2.47649282 -2.42325650
H  -1.51408281 -3.51681811  2.73078240
H  -0.40612402 -3.66874081  1.40003635
H  -2.62313213 -1.98357684  1.21843143
H  -1.94057312 -1.06063098  2.47115947
H  -0.04307892 -1.78610093  3.83419932
H   0.85688208 -3.33718783  3.34332455
H   2.08854506 -1.10980302  2.71182240
H   1.77989099 -2.28082496  1.49732138
H  -1.68048086  1.45299202 -2.70553647
H   2.77285312  2.11834412 -0.73256158
H  -2.82169189  0.10110101 -1.68704163
H  -3.03747215 -1.11268503 -0.58397256
H  -0.12041690  2.92077583 -3.79254447
H   2.09840200  3.25360721 -2.87649070
H   2.28096197  0.29149901  0.93778439
O  -3.26442005 -3.21954102 -1.29108154
H  -3.89955189 -3.43144507 -0.54831462
H  -2.32555606 -3.26387591 -0.94966255
O   1.88492105  1.89430099  3.11576535
H   2.79912112  1.52810508  2.94215847
H   1.73516808  1.96304494  4.10209633
O  -4.06114699  0.60757100 -3.35657762
H  -3.64853193  0.03523802 -4.06522774
H  -4.86057999  0.14259803 -2.97617363
O   2.70047710  5.66211706 -2.69533156
H   3.20094798  4.80503088 -2.81752752
H   2.86841295  6.26073604 -3.47856449
O  -5.09032681  1.71432811  0.38591440
H  -5.15693380  2.65353614  0.04908840
H  -4.67087605  1.13773602 -0.31523060
O   4.41964195  1.11349707  1.85096635
H   5.15043304  1.65146607  1.43080641
H   4.77408789  0.21517503  2.11055638
O   0.94835601 -1.91870994 -2.69890069
H   1.10266707 -2.75902409 -2.17922853
H   1.78912507 -1.37755198 -2.71489071
O   4.61843489 -2.56888003  2.20307137
H   4.23899887 -3.23440594  2.84580232
H   5.07238291 -1.83660502  2.71071531
O   4.01113604 -1.86781198 -0.36065661
H   4.20948408 -2.30249900  0.51781143
H   3.20743702 -2.29817993 -0.77157162
O  -1.18667295 -2.01355297  6.22689749
H  -1.97019889 -2.63468498  6.24367834
H  -1.34094097 -1.30081696  5.54263951
O  -1.11231496 -1.28575296 -4.47532867
H  -0.87349095 -1.84456700 -5.26948856
H  -0.40118696 -1.37622101 -3.77811168
O  -0.84534295 -4.46904701 -1.25212954
H  -1.24480595 -5.31039089 -0.88802861
H  -0.90479394 -4.47663683 -2.25033258
O  -0.24408494  5.96352726 -3.80331253
H  -0.16793594  6.73320680 -4.43718456
H   0.55669607  5.94426685 -3.20466350
O   3.14849708  4.38968807 -5.25170969
H   3.76213596  4.88836389 -5.86389469
H   2.71680210  3.63884693 -5.75158666
O  -4.27164509  0.80606597  2.76469637
H  -4.30395510  1.11552006  1.81433035
H  -4.40776112  1.58698099  3.37432243
O   1.84006009 -3.63752407 -1.00235962
H   2.45052097 -4.36683220 -0.69341462
H   0.89696304 -3.86863107 -0.76328562
