78
N16 tacrine microhydration cluster; source_frame=2419; time_ps=2423.838000; n_waters=16; atoms=78; max_selected_waterO_min_distance_A=3.703232; selection=nearest_16_water_oxygens_to_tacrine_heavy_atoms
N   0.24272693  0.19485022 -1.46156816
N  -0.60210239 -0.29525255  2.57516451
C  -1.03859102 -3.63563798 -0.18223743
C  -0.61844837 -2.65290616  0.92443151
C  -0.10660302 -3.50071882 -1.38507395
C  -0.32962524 -1.19882749  0.34492035
C   0.07194103 -2.14080022 -2.03295116
C   0.02692164 -1.02069829 -0.97271328
C  -0.28222143 -0.11467145  1.20196505
C   0.15865982  1.10159709  0.72561164
C   0.36757530  1.26916529 -0.69722633
C   0.28729523  2.26106764  1.54673834
C   0.65888513  2.58452059 -1.23433666
C   0.49916161  3.53231837  1.01444383
C   0.66442478  3.61599375 -0.36716824
H  -1.01710664 -4.63129590  0.26082487
H  -2.10305607 -3.56005262 -0.40427475
H  -1.37726747 -2.61476301  1.70599360
H   0.32486142 -2.87585233  1.42299075
H   0.84148634 -3.89063238 -1.01467686
H  -0.36076199 -4.27845357 -2.10523539
H   1.03204239 -2.26845620 -2.53296070
H  -0.60044395 -1.85162996 -2.84065084
H   0.24780143  2.24383284  2.62587852
H   1.09673584  2.64887644 -2.21949892
H   0.27295078 -0.65586255  2.92778654
H  -0.74430334  0.55856158  3.09562702
H   0.65477193  4.44526698  1.57006116
H   0.91485370  4.60896327 -0.71023684
H   0.39840449  0.28977038 -2.45497398
O   1.36193193  0.02916075 -4.00820713
H   1.49906481 -0.92593072 -4.27087765
H   2.15482939  0.56947447 -4.28994160
O  -1.53597843  1.86562659  4.11908440
H  -1.90585624  1.52712371  4.98430507
H  -1.33285581  2.84123065  4.20237155
O   2.20351458 -0.69323610  3.31590528
H   2.07942713 -1.65223955  3.57068945
H   2.26077760 -0.13345884  4.14256771
O  -2.20855438  1.16527392 -3.00866871
H  -2.60097944  0.30407168 -2.68566303
H  -2.47337019  1.90499427 -2.39005308
O   3.15221021  2.94036795  2.50568409
H   3.47173033  3.81104304  2.13174410
H   3.54487611  2.18693568  1.97828121
O  -1.03270208 -2.52199338  4.78817554
H  -0.97850668 -1.68942521  5.33944036
H  -1.95835363 -2.89673303  4.84050847
O   3.03195200  4.94083811 -2.19249945
H   3.52823184  4.97962596 -3.05979519
H   3.39852393  5.63013293 -1.56760101
O   2.94028051 -1.63232778  0.61118073
H   3.01042623 -1.03397153  1.40933437
H   2.01021887 -1.99398111  0.54643698
O   0.93542112 -6.23745130 -3.13975220
H   0.44535244 -5.62903951 -3.76398640
H   0.37229718 -7.04100250 -2.94688730
O   1.19203270 -3.31128095  3.76902033
H   0.35478962 -2.82423089  4.01762791
H   1.02621187 -4.29692338  3.80084355
O   1.08595718 -5.87925027  1.32631965
H   1.99180342 -6.19972061  1.60334177
H   1.10050572 -5.63653253  0.35633154
O   4.07211161  2.08656527 -1.45202999
H   3.80814124  3.01171805 -1.72481661
H   4.08719993  2.02485110 -0.45405035
O  -3.86061966  0.94516684  2.68007691
H  -4.33541214  0.67546202  3.51783068
H  -2.87737238  0.99484374  2.85545440
O  -2.92538368 -4.85080217 -3.25327139
H  -3.78232776 -5.18000387 -2.85669451
H  -2.41548835 -5.62280057 -3.63277893
O  -2.85947668  3.64045169 -1.38073425
H  -2.48724424  4.37400653 -0.81210403
H  -3.52242290  3.11165167 -0.85075884
O  -1.35249435  0.19377638  6.16844900
H  -2.23982584  0.10841490  6.62161107
H  -0.67325985  0.52219798  6.82478757
