78
N16 tacrine microhydration cluster; source_frame=9476; time_ps=9494.952000; n_waters=16; atoms=78; max_selected_waterO_min_distance_A=3.643232; selection=nearest_16_water_oxygens_to_tacrine_heavy_atoms
N  -0.46288013  1.37011855 -0.10501515
N   1.19626522 -2.42671591 -0.24358737
C   2.98585033  0.90103429  2.17833627
C   2.35772085 -0.39970595  1.60597623
C   1.94970274  1.90828269  2.65808404
C   1.05860043 -0.25736672  0.81541980
C   1.05684948  2.30767768  1.52565873
C   0.55714798  1.08999151  0.74695695
C   0.55537605 -1.15702039 -0.12896859
C  -0.62288570 -0.87804753 -0.86579119
C  -1.18025303  0.43101829 -0.83426224
C  -1.40180779 -1.90650112 -1.55584323
C  -2.36935711  0.78743547 -1.46974551
C  -2.61667252 -1.54125172 -2.16344272
C  -3.06365681 -0.22894913 -2.16377603
H   3.70449829  0.70651143  2.97445596
H   3.48912001  1.37368577  1.33487905
H   3.12955999 -1.02779967  1.16115774
H   2.07214928 -1.01847941  2.45666326
H   1.29647350  1.59523719  3.47257436
H   2.36715603  2.84590906  3.02508462
H   0.29957485  3.04436248  1.79385532
H   1.72080135  2.80511850  0.81867803
H  -1.18825817 -2.96245438 -1.47995745
H  -2.69169712  1.81682294 -1.52321183
H   1.60956240 -2.86446673  0.56737436
H   1.30160999 -2.81324202 -1.17073380
H  -3.28939533 -2.33367449 -2.45654785
H  -4.02064705  0.08880847 -2.55055749
H  -0.87188625  2.28260082  0.03707708
O   2.13446808 -4.01943762  1.92948879
H   2.08753777 -4.38553757  2.85888017
H   2.75046444 -4.58361984  1.37971938
O   1.80848598 -2.49848777 -3.08603512
H   1.41449308 -3.41251344 -3.18260800
H   2.11401129 -2.17105085 -3.98014890
O  -0.77656174  4.23559898 -0.94298731
H  -0.05970192  4.29309219 -1.63783061
H  -0.77903652  5.07309383 -0.39654862
O  -0.22215462 -0.47317416 -4.15522002
H  -0.67268848 -0.99912268 -3.43383419
H   0.44682312  0.14779371 -3.74672686
O   3.74810219 -0.83069045 -1.61380898
H   3.27601051 -0.05621916 -1.19271027
H   3.11017418 -1.33213693 -2.19827401
O   3.93181324  1.79049438  5.36443246
H   4.21812057  2.18798059  6.23623098
H   4.47821474  0.97477334  5.17457879
O  -1.71852589  1.75286191  3.56281675
H  -2.13718224  1.98787969  2.68560899
H  -1.31614780  2.57261222  3.97037233
O  -4.35137177  2.60312312 -3.78066897
H  -5.32706642  2.79393953 -3.67292558
H  -3.81989765  3.31263202 -3.31792461
O  -1.39292240  4.43590301  2.93372453
H  -1.41901398  4.98950046  2.10134900
H  -2.27985096  3.99395316  3.06802953
O  -3.38906384  2.87486022  1.20246375
H  -3.96933746  2.21347421  1.67770160
H  -3.86887264  3.74943012  1.13238300
O   0.71981525 -5.14244850 -2.54000794
H   1.66909838 -5.43262188 -2.41892325
H   0.43245888 -5.32611633 -3.48005711
O  -5.10931015 -4.12771410 -2.10836183
H  -5.87542915 -4.72253025 -2.35178553
H  -4.32306862 -4.68728954 -1.84625327
O  -0.53524590 -3.09524054  2.84788144
H  -0.68096161 -2.16324956  3.17978395
H   0.42755413 -3.21631509  2.60631193
O   1.75258732  1.07767719 -2.96579587
H   1.55004501  2.05127471 -2.86050927
H   2.23676205  0.92930072 -3.82809483
O   5.31112671  3.60743373  1.44740308
H   5.19758511  3.86617130  2.40665449
H   5.96771455  2.85617679  1.38028301
O  -1.99166107  1.96336788 -4.89723264
H  -1.54322720  1.13313144 -4.56615233
H  -2.93492508  1.98741620 -4.56606185
