78
N16 tacrine microhydration cluster; source_frame=6351; time_ps=6363.702000; n_waters=16; atoms=78; max_selected_waterO_min_distance_A=3.635337; selection=nearest_16_water_oxygens_to_tacrine_heavy_atoms
N  -0.87437859  1.09128869 -0.07709908
N   1.46422348 -2.20440756  0.29479718
C   1.70039330  1.10454954  3.16250348
C   1.98933945 -0.01498400  2.08481622
C   1.54591808  2.50890268  2.58749318
C   0.89990482  0.01662458  0.96116090
C   0.40391502  2.53217138  1.52688050
C   0.15364609  1.15796865  0.78578448
C   0.71234188 -1.06425273  0.06703305
C  -0.29537907 -0.99312960 -0.94664693
C  -1.09911957  0.19519819 -1.03275990
C  -0.53604832 -2.02600371 -1.88320255
C  -2.15545120  0.31582082 -1.88701415
C  -1.58332100 -1.90852248 -2.78425622
C  -2.32598438 -0.71122443 -2.85949016
H   0.75840816  0.81397069  3.62761426
H   2.50316296  1.08363927  3.89954019
H   2.94002304  0.15043271  1.57792830
H   1.98180923 -1.00263487  2.54589009
H   1.24487076  3.30144513  3.27258039
H   2.47155342  2.93159879  2.19681907
H  -0.55436268  2.83638109  1.94790292
H   0.68917522  3.28187192  0.78885865
H   0.16791878 -2.84504115 -1.88044143
H  -2.71967926  1.22551931 -2.03017807
H   1.57079182 -2.78210532 -0.52679133
H   2.32474098 -2.01337134  0.78786349
H  -1.78468361 -2.61282241 -3.57786512
H  -2.98208275 -0.50686347 -3.69265914
H  -1.56508675  1.82789911 -0.09778523
O  -2.42626228  3.36641897 -0.21763968
H  -1.73633804  4.02778352  0.07664180
H  -3.33734837  3.76328863 -0.10620809
O   3.21371040 -2.85792052 -1.87448192
H   3.64451275 -1.96638381 -1.73458052
H   2.84753857 -2.90904223 -2.80362368
O  -2.33292904 -4.39844977 -1.29716611
H  -2.06746235 -3.43452059 -1.31636024
H  -1.92741051 -4.83997809 -0.49678683
O   4.21043453 -2.56614768  1.62182689
H   3.62557850 -3.17420565  2.15867782
H   4.99217949 -3.08080565  1.26968646
O  -0.86744442 -1.34401309 -5.85244377
H  -1.83710518 -1.58216845 -5.90757722
H  -0.34205093 -1.94393813 -6.45581032
O  -3.12906876  0.16809476  2.08762383
H  -3.28650703 -0.79901587  1.88784671
H  -3.78108349  0.72513975  1.57325387
O   0.98189125  0.34307874 -3.80863440
H   0.25740013 -0.05324732 -4.37258387
H   1.78979263 -0.24529254 -3.84200132
O   3.41008911  3.50928987  5.36478543
H   3.90296803  4.19181550  5.90444016
H   3.89278946  2.63479436  5.41229653
O  -5.10845318 -2.77297293 -3.75305045
H  -5.02409306 -3.46052825 -3.03183508
H  -5.31647911 -1.88453566 -3.34389973
O  -5.90328636 -0.41264807 -2.91442370
H  -6.55852737 -0.43903910 -2.15946507
H  -5.81559935  0.52634538 -3.24699378
O   3.88290367 -1.58177077  4.72543168
H   4.31412659 -1.21191012  5.54838300
H   4.36655006 -1.24722850  3.91662526
O   2.32336960  5.66245378  4.16083646
H   2.72424564  4.81744397  4.51475358
H   2.18711910  6.30726732  4.91293454
O  -0.50309505  5.68887723  3.03108430
H   0.44173298  5.83953679  3.32195020
H  -0.84837666  4.84581197  3.44342160
O  -3.44184818 -2.19291007 -5.97003624
H  -4.12614002 -2.40517413 -5.27240536
H  -3.78902569 -1.47108256 -6.56872901
O  -1.73666706  3.50324357  4.29075933
H  -1.45422020  3.42529214  5.24687028
H  -1.71110382  2.60065950  3.86100698
O  -0.45228138 -4.60682284 -4.94194031
H  -0.91050663 -5.21023261 -4.28930998
H  -1.08458652 -4.37316882 -5.68058544
