78
N16 tacrine microhydration cluster; source_frame=7662; time_ps=7677.324000; n_waters=16; atoms=78; max_selected_waterO_min_distance_A=3.738949; selection=nearest_16_water_oxygens_to_tacrine_heavy_atoms
N   0.26848843  0.21940629  1.43535601
N  -0.43439576 -0.48733796 -2.60716642
C  -1.88523576  3.14892547 -0.64918531
C  -1.74013397  1.84889834 -1.36213172
C  -2.15081856  3.01971261  0.83412015
C  -0.88028118  0.82400446 -0.57850159
C  -1.00342891  2.31965129  1.59283721
C  -0.51741550  1.06359975  0.78452670
C  -0.24407623 -0.25892325 -1.22488011
C   0.55654549 -1.12938173 -0.51591242
C   0.77305296 -0.86201222  0.87209117
C   1.27762499 -2.25020535 -1.04478849
C   1.69143882 -1.61891468  1.64296376
C   2.03476563 -3.09583433 -0.25013483
C   2.25386956 -2.74158867  1.07080590
H  -1.00875578  3.78659718 -0.76432575
H  -2.58099410  3.81238262 -1.16284359
H  -2.74814031  1.45634226 -1.49600805
H  -1.30145035  2.08513681 -2.33158935
H  -2.27939484  4.02924435  1.22452246
H  -3.09817192  2.48576920  0.90845858
H  -0.15357262  2.99766008  1.51442610
H  -1.15678808  2.07107179  2.64297520
H   1.25726941 -2.37320264 -2.11756862
H   1.83975342 -1.36758109  2.68278824
H  -0.02066413 -1.28692313 -3.06497634
H  -1.13688812 -0.02291584 -3.16476549
H   2.49712756 -3.97266562 -0.67884005
H   2.69047406 -3.41449936  1.79397093
H   0.68950569  0.37460633  2.34020793
O   2.14573192  1.22774966  3.14802491
H   2.49811387  2.13688536  2.92598998
H   2.90383339  0.63214768  3.41361939
O  -1.83572996  0.75311632 -4.62763143
H  -2.82316065  0.91105612 -4.62170351
H  -1.42609394  1.23287757 -5.40353561
O  -0.00863702 -1.73686759  4.14667689
H  -0.87788439 -1.75127642  3.65250956
H   0.31775331 -2.67343979  4.27435481
O  -1.23574508 -3.43407135 -3.41132652
H  -0.96672082 -3.61655597 -2.46563880
H  -0.87814343 -4.15522723 -4.00466894
O  -4.92428136  4.39726348  0.20707165
H  -3.95790553  4.37591024 -0.04917324
H  -5.30098558  5.30276199  0.01170909
O  -3.36210823 -1.95598345 -2.17405487
H  -4.10219264 -1.98885338 -2.84576494
H  -2.52082944 -2.30402045 -2.58772183
O  -1.53135872 -3.82290082  0.02037417
H  -2.26072002 -4.50697522  0.01174914
H  -1.93259383 -2.90746121 -0.01094163
O   0.09220627 -5.08630185  2.49567258
H   0.72103753 -5.85835652  2.58788001
H  -0.44590125 -5.19272332  1.65954148
O  -2.83507562  6.51111407 -0.30176676
H  -2.93296600  7.08738036  0.50961148
H  -1.92787266  6.64727063 -0.69981683
O  -3.27362109 -1.54897837  0.47048628
H  -3.96195913 -0.94158374  0.86704909
H  -3.30715633 -1.48457353 -0.52687395
O   5.28106522 -4.19013839 -1.25726069
H   4.65777850 -3.80277281 -1.93657029
H   5.55624938 -5.10820918 -1.54260147
O   4.15116715 -0.37896291  3.95571982
H   4.66412568 -1.23380998  3.87755381
H   4.32962393  0.03647336  4.84766423
O  -3.65199423  3.40431972  4.12628161
H  -4.22888017  3.60505886  4.91805588
H  -3.97948003  2.57284017  3.67751109
O  -4.41623617  1.73000534 -3.84475035
H  -3.92049480  2.59477611 -3.76467688
H  -4.97156930  1.58706339 -3.02549882
O   4.05632972 -0.77222197 -3.01924966
H   3.59471130 -1.65683894 -3.08529032
H   3.99812483 -0.29942142 -3.89849476
O   3.50256848  1.13567753 -0.92845476
H   3.41938305  0.43454780 -1.63661934
H   4.19945883  0.85976763 -0.26647485
