78
N16 tacrine microhydration cluster; source_frame=907; time_ps=908.814000; n_waters=16; atoms=78; max_selected_waterO_min_distance_A=3.575521; selection=nearest_16_water_oxygens_to_tacrine_heavy_atoms
N  -0.34913133 -1.36687603  0.45607351
N   0.71333529  2.45424423 -0.85228087
C  -3.50202249  1.13748703 -1.02557875
C  -2.13765786  1.84137783 -0.69189479
C  -3.92505716  0.14179192  0.06700586
C  -0.99944185  0.90921936 -0.22588755
C  -2.86992334 -0.91378918  0.28436826
C  -1.37788652 -0.38481083  0.20097135
C   0.40883471  1.16094742 -0.35335566
C   1.37425210  0.16685257 -0.01593615
C   1.01863124 -1.11741486  0.36095308
C   2.80999018  0.44358120 -0.02113463
C   1.91513564 -2.11811485  0.74594854
C   3.67234923 -0.54016533  0.37761758
C   3.24859215 -1.81433048  0.69313024
H  -4.34610055  1.81548557 -1.15187098
H  -3.45821355  0.56031952 -1.94919039
H  -1.74392389  2.56434784 -1.40630938
H  -2.38395093  2.39383183  0.21487687
H  -4.14143918  0.71518669  0.96839212
H  -4.87380098 -0.33991661 -0.16951682
H  -3.10191797 -1.38142910  1.24123262
H  -3.01057885 -1.71513405 -0.44100310
H   3.29364087  1.36863670 -0.29817988
H   1.53887870 -3.10052338  0.99029134
H   1.48780133  2.88875637 -0.37113406
H  -0.09679292  3.05735264 -0.85953547
H   4.72824217 -0.31428089  0.35601686
H   4.00968005 -2.55464878  0.89080308
H  -0.71746419 -2.24701824  0.78740285
O  -1.11124109 -3.72521343  1.99650548
H  -0.71875833 -4.64209309  2.06923364
H  -0.62250779 -3.10389366  2.60895990
O  -3.86818384 -3.50724258  1.35922788
H  -3.00566552 -3.89042797  1.68972658
H  -3.98456357 -3.73347893  0.39213250
O  -0.46612714  4.93610630  0.46378682
H   0.12068679  5.73121223  0.31062864
H  -1.40712427  5.16302643  0.21272729
O   4.59961726 -1.39675274  3.43332456
H   4.64756562 -0.40399971  3.54352163
H   3.80354239 -1.74870052  3.92566274
O   5.79789879  1.26099739  1.86998247
H   5.75568678  1.37832794  0.87778734
H   5.43673660  2.07882748  2.31799482
O   3.03487279 -4.04270258 -1.57792498
H   2.49952056 -4.41443624 -0.81949832
H   3.97955109 -4.36307421 -1.50760867
O   2.25488784  1.90567265 -3.63414027
H   1.85021998  2.18471584 -2.76329066
H   1.96842601  0.97243843 -3.85096575
O   1.90595748 -5.39704504  0.58831952
H   1.92372395 -6.25481405  0.07459138
H   2.71793772 -5.33951893  1.16916250
O   3.48462559  3.72134266  0.42053388
H   4.38662507  3.38128529  0.15452932
H   3.38569428  3.66208038  1.41386197
O   0.39617278 -2.06020203  3.68093084
H   0.41981913 -1.11209049  3.99798749
H   1.26188876 -2.50807991  3.90440629
O  -3.27430700  0.47054253 -4.26708151
H  -2.88428758 -0.34201279 -4.70025565
H  -2.55167650  1.14356003 -4.10943438
O   5.78647901  1.76655540 -0.93056227
H   6.76657058  1.96463547 -0.91698481
H   5.59225871  1.09376202 -1.64444377
O   6.56225897 -2.16296616  1.35630105
H   6.03686287 -1.99610462  2.19063638
H   7.38491990 -2.68588390  1.57943033
O  -3.01072191  5.12589893  0.11747049
H  -3.08483289  4.71778736 -0.79244925
H  -3.52382921  5.98390732  0.14074491
O  -3.76906465  4.11472187 -2.86641814
H  -3.05624841  3.49807606 -3.20054461
H  -4.66026948  3.80423126 -3.19710089
O   5.43686749 -0.13054504 -2.70508219
H   5.37192561  0.60779819 -3.37637259
H   4.77328326 -0.84424152 -2.92934443
