78
N16 tacrine microhydration cluster; source_frame=8468; time_ps=8484.936000; n_waters=16; atoms=78; max_selected_waterO_min_distance_A=3.746938; selection=nearest_16_water_oxygens_to_tacrine_heavy_atoms
N   1.42922643  0.18608529 -0.16950884
N  -2.58993384 -0.31356853  0.23805437
C  -0.65707442  3.32900864  1.69551573
C  -1.40735289  2.37394578  0.73453341
C   0.92544463  3.27526147  1.53568945
C  -0.65375230  1.13915211  0.29577646
C   1.48645356  2.61777550  0.30537615
C   0.72559980  1.28987271  0.15602694
C  -1.24224302 -0.12428993  0.03334818
C  -0.48588821 -1.17826598 -0.48493423
C   0.95514682 -1.05660671 -0.43704929
C  -1.05012604 -2.37299007 -1.03045549
C   1.78834632 -2.22260326 -0.65553322
C  -0.29577920 -3.49340623 -1.27516451
C   1.07193235 -3.44937080 -0.94167509
H  -0.94503376  4.34845502  1.43878946
H  -0.99531743  3.20913750  2.72474966
H  -2.21965739  2.07898099  1.39880571
H  -1.91591117  2.75373418 -0.15159836
H   1.38750938  4.26018864  1.60288057
H   1.29964259  2.68368966  2.37122450
H   1.33980754  3.17628056 -0.61910524
H   2.56090787  2.54820782  0.47510729
H  -2.11259791 -2.34004825 -1.22142162
H   2.84404233 -2.07360690 -0.48317566
H  -3.06121060 -1.18035644  0.02200470
H  -3.25164029  0.41750104  0.45664511
H  -0.69701716 -4.45002693 -1.57563868
H   1.57611993 -4.39928716 -1.04094448
H   2.43113235  0.29511315 -0.10319033
O   4.10179857  0.51378018  0.16823921
H   4.75820688  1.08333451  0.66294775
H   4.45463327  0.31635148 -0.74638119
O  -4.66208127  0.86958272  1.71962652
H  -5.19685313  1.65569741  2.02953348
H  -5.25752219  0.23450429  1.22756300
O  -3.48034714 -0.01108497 -2.78747549
H  -4.29327141  0.37792451 -3.22086468
H  -3.75169427 -0.75617736 -2.17820683
O  -0.05489227  5.57279164  3.93090544
H   0.53916124  5.00629479  4.50202856
H   0.50547794  6.14834267  3.33531675
O  -1.49775883 -4.55369514  1.53917322
H  -1.99530968 -4.42302268  2.39670858
H  -0.53073260 -4.71511262  1.73616037
O  -2.50311622 -5.92354577 -0.85471573
H  -3.02793053 -5.29284042 -1.42636337
H  -2.20869538 -5.45307582 -0.02286568
O   1.60162738 -5.05709308  1.90305815
H   1.52716878 -4.24923509  2.48771296
H   2.47105602 -5.03243869  1.40961561
O  -4.70294949 -2.63857501 -0.86931887
H  -4.94785353 -3.25339025 -0.11963596
H  -5.21838662 -2.89002841 -1.68852320
O   4.84472898 -2.40306133  0.67019949
H   4.75885061 -1.79000800  1.45555887
H   4.96135667 -1.86280578 -0.16318073
O   3.55772308 -5.59818548 -1.86039295
H   3.86931613 -4.90752452 -2.51300087
H   3.47633031 -6.48106855 -2.32287779
O  -2.81480112  0.14305073  3.64705477
H  -3.32368484  0.24082333  2.79179010
H  -3.44051173 -0.12962001  4.37790117
O   4.45865587  4.36542851  0.42663774
H   4.33887151  4.71491963 -0.50261297
H   4.73108247  3.40400273  0.38861761
O  -3.38584840  4.49422509 -1.57025471
H  -4.02216917  4.75596673 -2.29591837
H  -3.74428305  4.79736573 -0.68728771
O   3.97027973 -5.09677595  0.68060980
H   3.76895479 -5.44533819 -0.23479881
H   4.17381385 -4.11913865  0.62770376
O   2.05599025  6.78949982  2.17221651
H   1.89167121  6.86540562  1.18873415
H   2.50521997  7.62053162  2.50020990
O  -3.35824111 -4.46852201 -3.20130672
H  -3.56162396 -4.12162250 -4.11689177
H  -2.61863431 -5.13935750 -3.25572290
