78
N16 tacrine microhydration cluster; source_frame=9275; time_ps=9293.550000; n_waters=16; atoms=78; max_selected_waterO_min_distance_A=3.572647; selection=nearest_16_water_oxygens_to_tacrine_heavy_atoms
N  -0.57437258  1.39225941  0.21501133
N   1.05509205 -2.40002079 -0.46391753
C  -0.27664499 -0.13935871 -3.70716170
C   0.61444826 -0.71545334 -2.64938334
C  -0.31662207  1.42911224 -3.59512785
C   0.25574942 -0.30582161 -1.26917008
C  -0.61052828  1.90718632 -2.14490536
C  -0.26847677  1.01045780 -1.06534222
C   0.53072996 -1.11233540 -0.19122151
C   0.24184961 -0.64996452  1.15705892
C  -0.26141386  0.65634422  1.30408832
C   0.46619673 -1.45787830  2.31054541
C  -0.68248014  1.04679089  2.65748593
C   0.20343561 -0.95187302  3.59398290
C  -0.37696295  0.29055481  3.84805676
H  -0.05204897 -0.62604923 -4.65626028
H  -1.27442579 -0.51767559 -3.48487643
H   0.62843580 -1.80095310 -2.74733141
H   1.64354391 -0.45912666 -2.90109709
H   0.59160967  1.90046291 -3.97068575
H  -1.08442049  1.84100800 -4.25005320
H  -0.03745394  2.83138494 -2.07045010
H  -1.58646517  2.37683754 -2.02212742
H   0.87669439 -2.45361538  2.23054763
H  -1.17937689  1.98625832  2.84956929
H   1.31104012 -2.71406956 -1.38910034
H   1.42802067 -2.95139809  0.29569217
H   0.39445562 -1.64636250  4.39871666
H  -0.57830744  0.69149570  4.83045503
H  -1.00958567  2.28386097  0.40405342
O  -1.65617113  4.07475548  0.69141123
H  -2.17357759  3.69213324  1.45684692
H  -2.25580721  4.65572052  0.14103386
O  -0.44212847 -4.69575424  0.67839214
H  -0.37312155 -4.84893246  1.66417858
H   0.38172026 -5.04110165  0.22893974
O  -3.10791044  0.87161427  5.40106886
H  -4.01475840  1.03894882  5.78788349
H  -3.19830256  0.34769897  4.55410832
O  -1.07392054  0.39177017  7.05010363
H  -1.16892271  0.73890381  7.98309514
H  -1.91124468  0.58099155  6.53718790
O  -3.42916803  2.98818855  2.34411093
H  -3.93843393  2.14018850  2.49088904
H  -3.86640863  3.73146849  2.85042640
O  -3.71564417 -0.40237255  3.01169845
H  -4.66020994 -0.30349941  2.69861552
H  -3.52320795 -1.36715145  3.19105670
O   0.88156433  3.65209465  4.27339992
H   1.81046791  3.78051214  4.62074277
H   0.57007093  4.49522572  3.83510503
O  -1.74549704  3.13047342  5.25640276
H  -2.00248938  2.21501904  4.94672879
H  -0.76260595  3.26219635  5.12765878
O   4.36934824 -1.87756557 -1.29446104
H   4.00338383 -2.42653294 -2.04592970
H   4.61799164 -2.47730465 -0.53387621
O  -3.49294310 -0.15150089 -1.53335455
H  -4.36936693 -0.33586712 -1.08850602
H  -2.90489130 -0.95678921 -1.45781926
O  -2.47656088 -2.92583485  0.05545732
H  -2.24613886 -3.50845928 -0.72393683
H  -1.80446081 -3.06166382  0.78335258
O   2.70563288  2.67908506 -4.97294215
H   2.31613131  3.59953814 -5.00540713
H   2.68250198  2.34035378 -4.03234270
O   0.77982111 -3.82923336  5.59602583
H   0.09018488 -3.86410828  6.31934155
H   1.48249359 -3.15992661  5.83743796
O   2.24561329 -5.46877594  0.87515899
H   2.97350187 -5.91695423  0.35620424
H   2.21554680 -5.84580250  1.80087301
O   2.83860083  2.75980501 -2.04114083
H   2.68926449  2.85093670 -1.05656269
H   3.53136940  2.05861931 -2.20969704
O   0.01368780  5.39906149 -2.57030848
H  -0.55353956  6.22201877 -2.53878954
H   0.53984900  5.38926916 -3.42063692
