78
N16 tacrine microhydration cluster; source_frame=2117; time_ps=2121.234000; n_waters=16; atoms=78; max_selected_waterO_min_distance_A=3.669821; selection=nearest_16_water_oxygens_to_tacrine_heavy_atoms
N   0.44802181  0.89849634  1.03777781
N  -0.64687093 -1.63592367 -2.05915865
C  -1.24822839  2.70322485 -2.32621082
C  -0.88849457  1.16680117 -2.45785937
C  -0.36766853  3.58377333 -1.39824256
C  -0.35721167  0.55676050 -1.16179761
C  -0.27044840  2.90595026 -0.02077254
C   0.02434604  1.42669077 -0.12214264
C  -0.30606349 -0.81658201 -0.96191415
C   0.23874049 -1.30973797  0.28576294
C   0.55555205 -0.42870359  1.33068219
C   0.19037752 -2.64817791  0.62691906
C   1.00554626 -0.96359949  2.58039609
C   0.55594580 -3.14880590  1.81883899
C   1.06645600 -2.29016666  2.82772127
H  -1.17466958  3.14236612 -3.32111940
H  -2.24432857  2.93931360 -1.95184883
H  -1.82013519  0.74375219 -2.83359179
H  -0.09619077  1.03965635 -3.19555101
H   0.64573686  3.69199724 -1.78476223
H  -0.80352648  4.58211870 -1.36036762
H   0.49107341  3.55253191  0.41525236
H  -1.22139473  3.05516787  0.49063269
H  -0.21017130 -3.28587751 -0.14722547
H   1.35452454 -0.28205137  3.34204379
H  -0.41305097 -2.60828524 -2.20037207
H  -1.22100099 -1.25488024 -2.79758963
H   0.51035432 -4.21413212  1.99030987
H   1.35603182 -2.64031105  3.80748883
H   0.78648727  1.56035681  1.72150365
O   3.33111851  1.33899183  1.55554208
H   3.40793650  1.18220015  0.57090238
H   4.20902149  1.14518614  1.99340701
O   3.87381594 -2.95421200  3.93200758
H   3.33691065 -3.33129482  4.68668714
H   4.59417717 -3.60039549  3.67996398
O  -0.26022823 -1.41316347 -5.25405678
H  -0.50076367 -0.98840933 -6.12682614
H   0.26510124 -0.76577215 -4.70186648
O   3.43293993 -1.28470640 -0.24997601
H   3.63205568 -1.26468401  0.72979549
H   3.75109713 -2.15008287 -0.63714465
O   3.08640806  1.09578390 -1.13097963
H   3.23697178  0.10720224 -1.12495288
H   2.64839499  1.36099977 -1.98993525
O   3.80026810 -0.21638994  4.05785099
H   3.37016241 -1.11503248  3.97153571
H   4.65898649 -0.20726614  3.54548422
O  -3.74957974 -1.64750557 -1.06762227
H  -3.74219783 -1.87692289 -2.04092249
H  -3.61563380 -2.47881918 -0.52820024
O  -2.82898302 -0.16394930  1.74267248
H  -2.73549457 -0.86464720  2.44997874
H  -2.78359087 -0.59290056  0.84048596
O  -2.04491826  6.45978136 -0.40196666
H  -1.07146974  6.56763620 -0.20006212
H  -2.49942334  6.02071733  0.37304846
O  -1.53365436 -2.57218914  5.11711016
H  -1.19590250 -3.51270180  5.15397898
H  -2.16925112 -2.47607450  4.35109511
O   0.51150612 -4.93017988 -2.20262703
H   0.85851447 -4.49630241 -3.03409323
H  -0.42362978 -5.24851351 -2.35814127
O  -0.10234483  0.12442560  5.79837457
H  -0.64970704  0.57752771  6.50200334
H  -0.47650285 -0.78553991  5.61957899
O   2.00353281 -3.39259796  6.10482517
H   1.30132143 -2.96821337  6.67648664
H   2.83993380 -3.51403122  6.63932243
O  -3.72479661  2.25038023  0.88899008
H  -3.32095189  1.48013659  1.38258305
H  -3.71688874  2.05837889 -0.09237298
O  -0.14022513 -5.01452284  4.92888037
H  -0.04129620 -5.84201555  4.37618819
H   0.76497571 -4.66422348  5.16950909
O   2.18050997  3.47644968  2.99231801
H   2.68713657  2.91096659  2.34150407
H   2.01141636  2.95315046  3.82752195
