78
N16 tacrine microhydration cluster; source_frame=4436; time_ps=4444.872000; n_waters=16; atoms=78; max_selected_waterO_min_distance_A=3.844120; selection=nearest_16_water_oxygens_to_tacrine_heavy_atoms
N  -0.09533005 -0.70413882 -1.15014858
N  -0.02702503  1.52386182  2.23869781
C  -3.39473705 -0.95816690  1.20790844
C  -2.08500557 -0.39590794  1.87013607
C  -3.17450314 -2.14827162  0.33988552
C  -1.01613312 -0.10491568  0.82456284
C  -2.22288971 -1.85055978 -0.79969234
C  -1.11428623 -0.80276519 -0.37544937
C   0.03434010  0.77194827  1.05520325
C   1.14112968  0.79904931  0.12849121
C   0.99324150  0.08632987 -1.07144375
C   2.35677071  1.52209752  0.27135830
C   2.00454254  0.04170888 -2.05232306
C   3.39049168  1.48530763 -0.64823551
C   3.20939369  0.73442262 -1.83895082
H  -4.02480392 -1.24729330  2.04905109
H  -3.86895018 -0.08272416  0.76426201
H  -2.24353485  0.34010499  2.65833263
H  -1.79098778 -1.28470332  2.42843418
H  -2.62062244 -2.85212189  0.96110229
H  -4.10783081 -2.51963336 -0.08330460
H  -1.68985729 -2.75404841 -1.09580917
H  -2.74718170 -1.43472559 -1.66009970
H   2.48367519  2.17520660  1.12208920
H   1.72006912 -0.46686274 -2.96162434
H  -0.99497395  1.47057193  2.52213364
H   0.38222809  2.41583627  1.99996548
H   4.28986568  2.05129569 -0.45540257
H   3.96819515  0.77399629 -2.60644979
H  -0.23559361 -1.22311050 -2.00518913
O  -0.04448586  1.21926301 -3.81819649
H   0.21263332  2.18564075 -3.82005138
H   0.28786774  0.78431934 -4.65507479
O   0.88140602 -0.58535821  4.11856918
H   0.44660397  0.15632957  3.60783939
H   1.12256260 -1.32557470  3.49093609
O  -1.99423103  2.54820960 -0.57817001
H  -1.05577450  2.89355605 -0.58399696
H  -2.25697021  2.28138345 -1.50540895
O  -2.78119354  2.87227815  3.42395477
H  -2.48879604  3.68383640  2.91811256
H  -3.15498238  3.14818948  4.30948048
O   0.31906528  3.88845962 -0.76061363
H  -0.39072685  4.57783550 -0.90537281
H   1.21160336  4.33584636 -0.70386810
O  -0.17021160 -2.32927663 -4.01831312
H  -0.07000332 -3.26995463 -4.34247847
H   0.28795547 -1.70730669 -4.65332193
O  -4.67458992 -0.54235036 -2.82363958
H  -5.50457983 -1.06917578 -2.64041348
H  -4.86476498  0.14674037 -3.52291603
O   1.77935905 -2.25901133  1.73277550
H   1.42408104 -3.09518296  1.31492977
H   2.75392075 -2.17139012  1.52649574
O   4.64493294 -0.07766539  2.50966625
H   5.20258827  0.02053493  3.33390980
H   3.85277767  0.52977651  2.56885509
O  -6.77140169 -1.93705661  0.53950005
H  -6.63129930 -1.55453307  1.45276146
H  -7.10974770 -2.87469978  0.61917191
O   5.14953632  3.13179105 -3.71575089
H   4.93159504  4.09535163 -3.56066151
H   4.40311451  2.69831556 -4.22068090
O  -5.44965963 -3.90073401  2.57530575
H  -5.53823977 -3.55008799  1.64299564
H  -5.72788219 -3.19350654  3.22524529
O  -4.45170860  2.53918498  0.79754429
H  -4.42217665  2.36794227  1.78233128
H  -3.56920271  2.30207818  0.39138775
O  -2.64181595 -0.08031851  5.51332073
H  -2.80816059 -0.99297244  5.13996868
H  -2.18671398 -0.16082675  6.40011339
O  -3.47112160 -2.55468399  4.55537395
H  -2.72214298 -3.21319086  4.62885551
H  -4.32371883 -2.98520238  4.85156898
O  -6.60793858 -1.34800297  3.28170280
H  -7.32160454 -1.77834136  3.83441429
H  -6.02983980 -0.77990252  3.86741905
