78
N16 tacrine microhydration cluster; source_frame=4234; time_ps=4242.468000; n_waters=16; atoms=78; max_selected_waterO_min_distance_A=3.706178; selection=nearest_16_water_oxygens_to_tacrine_heavy_atoms
N  -0.41616049 -0.94223300 -1.01554693
N   0.83760462  1.68274268  1.84585749
C   1.53702030  2.50633176 -2.32723535
C   1.83190069  1.95944413 -0.89407457
C   1.65149579  1.24242886 -3.32096971
C   0.83157084  0.93572005 -0.45588315
C   0.61005650  0.18379243 -2.85385335
C   0.37237606  0.07427546 -1.41712106
C   0.44873283  0.74842974  0.89610564
C  -0.42782059 -0.27950285  1.25731932
C  -0.82935753 -1.18676487  0.26122080
C  -0.87035098 -0.54700864  2.61956298
C  -1.68606343 -2.27534906  0.58497798
C  -1.77097740 -1.61161391  2.92346560
C  -2.12002721 -2.49069277  1.89617430
H   0.56577215  2.99334439 -2.41438783
H   2.29173670  3.26191290 -2.54540933
H   2.84347591  1.55733880 -0.83815206
H   1.76909575  2.77327355 -0.17169107
H   1.47934256  1.47862228 -4.37105335
H   2.63909492  0.82105931 -3.13336385
H  -0.36763897  0.34680589 -3.30732740
H   1.05674634 -0.72420696 -3.25895274
H  -0.49485388  0.02649435  3.45412623
H  -1.94681158 -2.85573474 -0.28769697
H   1.54924903  2.35618480  1.60062682
H   0.36777256  1.74420651  2.73781001
H  -2.03466430 -1.75671247  3.96068083
H  -2.62921348 -3.43580214  2.01406085
H  -0.75232353 -1.54454068 -1.75332750
O   0.03137121  2.88511714  4.18446051
H  -0.86686840  3.28128036  3.99414431
H   0.14757798  2.78179964  5.17229735
O  -1.13141265  3.41946658  0.93065726
H  -0.52091017  2.77849134  1.39588629
H  -1.75186267  2.91357168  0.33139788
O  -0.84548059 -2.88760487 -3.08478559
H  -0.92360296 -3.88444272 -3.09932006
H  -0.04617014 -2.60811964 -3.61675418
O   2.48401234 -0.82354305  2.84898268
H   2.99630508 -0.97165547  2.00304019
H   2.98172567 -0.18135158  3.43196761
O  -4.25442758 -3.43454758  4.04793917
H  -4.99966207 -3.01817743  4.56876647
H  -4.63069358 -4.09230057  3.39541804
O  -2.83872666  0.04048052 -3.05181802
H  -2.90788569  0.75586674 -2.35651983
H  -3.13535514  0.40413305 -3.93486274
O  -3.22707334  1.51357635  0.98802745
H  -2.96724286  0.65730902  1.43445193
H  -4.07276788  1.85851797  1.39523207
O   2.51805106  4.26638874  3.25829302
H   1.66147867  3.92112073  3.64179408
H   2.35545830  5.15205654  2.82337176
O   1.03724990 -0.10414925  5.42895018
H   1.42797134 -0.40887081  4.56034171
H   0.90517185  0.88681558  5.40562426
O  -2.07443585 -5.60064236 -0.18013299
H  -2.69952598 -5.25422589 -0.87960351
H  -1.29955902 -6.05400530 -0.62061895
O   4.10212383  2.76989492  1.69999587
H   4.25564990  3.37797245  0.92110526
H   3.50816319  3.22311243  2.36468016
O   1.52738140 -2.75212137 -4.52059425
H   1.22015396 -1.98167948 -5.07919086
H   2.46330026 -2.99587122 -4.77484144
O  -4.13044896 -2.14816896 -2.13484395
H  -3.52823939 -1.40265385 -2.42041505
H  -4.98884311 -2.09740702 -2.64531625
O  -5.76801839 -2.09146778  1.82926356
H  -5.64105334 -1.86861030  2.79581153
H  -5.39397349 -3.00035659  1.64484297
O   2.32213030 -3.40843479 -1.00539792
H   2.00274462 -4.32504765 -0.76495374
H   1.90963957 -3.12846724 -1.87227166
O   1.83844348 -3.23972408  1.81168830
H   1.94928823 -2.62650672  2.59378707
H   2.12161054 -2.76884023  0.97617423
