78
N16 tacrine microhydration cluster; source_frame=2822; time_ps=2827.644000; n_waters=16; atoms=78; max_selected_waterO_min_distance_A=3.602010; selection=nearest_16_water_oxygens_to_tacrine_heavy_atoms
N   1.41390950  0.03487514  0.27621771
N  -2.54935211  0.00727056 -0.85928033
C  -0.57446092  3.70120118  1.02665831
C  -1.48693889  2.46920322  0.51360633
C   0.60990149  3.30108236  1.88109996
C  -0.65618032  1.22076248  0.13423468
C   1.53953034  2.35194467  1.11241557
C   0.74345166  1.15313981  0.45174815
C  -1.20276588  0.01435064 -0.41618608
C  -0.47070974 -1.22186400 -0.59263109
C   0.95732695 -1.16924168 -0.27582239
C  -0.99209827 -2.44595458 -1.03343747
C   1.76533181 -2.29934003 -0.43113778
C  -0.24304097 -3.61284520 -1.00751375
C   1.14609534 -3.50458457 -0.77997182
H  -0.15507787  4.35106824  0.25861479
H  -1.27370637  4.27127908  1.63834979
H  -2.20945781  2.21158384  1.28800894
H  -1.96527999  2.89460157 -0.36862157
H   1.11801058  4.19930337  2.23199107
H   0.26422173  2.77087663  2.76850440
H   2.04001433  2.97330354  0.36976554
H   2.31523806  2.03733276  1.81055381
H  -2.05584281 -2.54950620 -1.18875573
H   2.81518609 -2.24188615 -0.18434690
H  -2.88723987  0.94956706 -0.72508214
H  -2.81003135 -0.56767728 -1.64768480
H  -0.59505981 -4.51129653 -1.49255727
H   1.76885087 -4.38189198 -0.87435411
H   2.32876450  0.03995488  0.70413520
O  -4.23613208 -1.36018826 -2.77556012
H  -3.78869861 -1.24051406 -3.66183351
H  -5.09857982 -0.85412146 -2.76654600
O  -0.26832574 -0.57564332 -3.58657335
H  -0.22723859 -1.50402095 -3.95593332
H   0.60515124 -0.34949614 -3.15541814
O   1.61905057 -6.70423080 -0.66454385
H   1.46503216 -6.75282587 -1.65141557
H   1.77710158 -7.62432791 -0.30615590
O  -0.17963403  2.34098075 -2.86688970
H   0.79688412  2.24937986 -3.06188176
H  -0.63923210  1.47215436 -3.05103658
O  -1.46833843 -3.57414438  2.00619914
H  -2.41636031 -3.56052174  1.68828513
H  -1.12321275 -4.51246728  1.98526217
O   4.31865102 -0.49457623  1.72572161
H   5.10566277 -0.11149050  2.20930983
H   4.32066971 -1.48995759  1.82170130
O   1.09838158 -4.84457590 -3.80793594
H   0.90651137 -4.20785202 -4.55477498
H   2.00457055 -4.65287627 -3.43101095
O  -4.69731086  2.96994947 -0.18451093
H  -4.81055587  2.40830444  0.63508155
H  -5.13666766  2.51859639 -0.96120046
O   2.51335532  0.36438773 -2.85131715
H   3.01903326 -0.02190997 -2.07991289
H   2.71836526  1.34004281 -2.92921327
O   4.60197288 -0.62267472 -1.20609544
H   5.43299491 -1.12366988 -1.44776891
H   4.55299527 -0.51775481 -0.21282171
O  -0.95568031  5.25295137 -2.00709890
H  -1.80987590  5.46863721 -2.48020528
H  -0.74994367  4.28057264 -2.11733697
O   3.59867794 -3.58286847 -3.21353601
H   4.49267227 -3.83768024 -2.84496473
H   3.48615581 -2.59071590 -3.15902017
O  -3.54792732  1.92920516 -3.64519380
H  -2.83293384  1.51166080 -4.20594524
H  -3.87371486  2.76446699 -4.08813833
O   2.07682997  4.25318120  5.00451209
H   2.28228480  4.93056939  4.29815938
H   2.92865163  3.94272779  5.42643477
O   4.28669316  2.51385282 -1.19159768
H   4.94690413  2.83702730 -1.86959432
H   4.32536251  1.51604246 -1.13794492
O   2.67026240 -5.66692044  1.66455199
H   2.16375834 -6.07826789  2.42234255
H   2.23947007 -5.92128258  0.79869010
