78
N16 tacrine microhydration cluster; source_frame=1209; time_ps=1211.418000; n_waters=16; atoms=78; max_selected_waterO_min_distance_A=3.756344; selection=nearest_16_water_oxygens_to_tacrine_heavy_atoms
N   0.05327765  1.39916541 -0.37171629
N   0.02789942 -2.49489091  0.77594682
C   2.26129595 -1.27622388 -2.69779089
C   1.83933608 -1.77969240 -1.37458781
C   2.86689727  0.05882956 -2.48338011
C   0.96753852 -0.79584382 -0.56491640
C   1.73574702  1.01821734 -2.15469244
C   0.91709010  0.53997637 -0.96017054
C   0.00404612 -1.20599435  0.39708492
C  -0.89739641 -0.27102826  1.01661941
C  -0.81374772  1.12722518  0.64441272
C  -1.88335737 -0.55234407  2.02159568
C  -1.69090780  2.10104872  1.15188333
C  -2.71087201  0.42464377  2.50654027
C  -2.67684682  1.70691134  2.09317133
H   2.89109198 -1.94001840 -3.29010275
H   1.36571185 -1.17040037 -3.31002501
H   1.36085574 -2.74984525 -1.50860146
H   2.76258151 -1.98436902 -0.83253077
H   3.59244315  0.03485037 -1.67029456
H   3.44918124  0.30962207 -3.37003020
H   2.11684481  2.03193022 -2.03119639
H   1.06646601  1.11918666 -3.00907400
H  -1.96387132 -1.54045938  2.45001861
H  -1.49688752  3.13202311  0.89527342
H  -0.80084642 -2.98163389  1.08636686
H   0.65426127 -3.00739263  0.17170211
H  -3.32706483  0.22977187  3.37183329
H  -3.34850057  2.38968779  2.59226796
H   0.10294501  2.34142806 -0.73195628
O  -1.52237447 -4.91580175  1.36488172
H  -1.01504453 -5.42025636  0.66621038
H  -2.49634202 -5.12939237  1.28893396
O  -0.25892289  3.94846274 -1.80329684
H   0.54726855  4.31513812 -2.26762846
H  -0.97301038  4.64786174 -1.77298573
O  -2.26752218 -0.42565988 -1.81077936
H  -2.25842222 -1.07889913 -2.56787661
H  -2.59842714  0.45939852 -2.13815287
O  -5.82944997  1.37234809  2.04766723
H  -5.94600519  0.68776728  1.32810947
H  -5.78486665  2.28311850  1.63716671
O   0.34085719  4.20149829  2.41845056
H   0.93875186  4.72212245  3.02793595
H   0.79727046  4.06674601  1.53894588
O  -1.28719362  3.21622874  4.61369940
H  -0.56446107  3.28694560  5.30120054
H  -0.87712415  3.16462351  3.70310613
O   2.83659045 -4.59192441  0.03383991
H   3.82959572 -4.56374524 -0.08081988
H   2.40901629 -4.86253999 -0.82868365
O   2.42308680  3.73272826  0.60741731
H   2.63663069  2.99174334  1.24408123
H   3.27162139  4.16552855  0.30299589
O  -3.78704580  1.80661227 -1.61363390
H  -3.53769048  1.97068812 -0.65922240
H  -4.33226999  2.57346751 -1.95225218
O  -5.05197652  4.40422179  2.24256798
H  -5.85341676  4.99131896  2.35663053
H  -4.60282262  4.27779032  3.12703201
O  -3.36830457 -2.92498372  4.32170400
H  -3.67808278 -3.23461221  3.42272278
H  -4.15741666 -2.81197236  4.92546746
O   1.66462866 -5.25763391 -2.43697813
H   0.98716609 -5.83092092 -2.89783266
H   2.57782618 -5.48177217 -2.77731970
O  -3.86160215  4.01816394  4.74670729
H  -2.89659150  3.75845076  4.78281387
H  -4.42935212  3.21996714  4.94805452
O  -5.44438203  1.67942835  4.74671849
H  -5.69949373  1.57762934  3.78518054
H  -6.24911722  1.53402068  5.32226810
O  -1.26655897 -2.93306230 -3.14338091
H  -0.48826917 -2.35066865 -2.90868357
H  -1.11478456 -3.34638189 -4.04122904
O   2.54906909  1.62342288  2.42664954
H   3.28861872  1.08024909  2.02912208
H   1.91007487  1.01892306  2.90232464
