78
N16 tacrine microhydration cluster; source_frame=1008; time_ps=1010.016000; n_waters=16; atoms=78; max_selected_waterO_min_distance_A=3.683072; selection=nearest_16_water_oxygens_to_tacrine_heavy_atoms
N   0.51763515 -1.12507661 -0.74656703
N  -1.03599091  2.12721507  1.34059404
C  -0.98120041 -1.97725042  3.18041871
C  -1.29407520 -0.54785570  2.56243490
C  -1.07856770 -3.04667409  2.08999132
C  -0.56486149 -0.26589235  1.21036790
C   0.02400951 -2.72846731  0.95484517
C  -0.05266495 -1.32897981  0.44740461
C  -0.51556416  1.00511042  0.60818837
C   0.17406731  1.23315303 -0.63863017
C   0.69286518  0.06113307 -1.35285689
C   0.34019165  2.47816340 -1.30542781
C   1.36327248  0.19766490 -2.60106684
C   0.98397045  2.50130717 -2.49675109
C   1.42691307  1.41644923 -3.25294520
H  -0.04543037 -2.01897748  3.73781751
H  -1.71042747 -2.23039945  3.94999288
H  -2.35596962 -0.30833753  2.61822198
H  -0.86719341  0.11971156  3.31091617
H  -1.16475029 -4.06676992  2.46425317
H  -2.08381958 -3.05328496  1.66865514
H   0.97055321 -2.97294362  1.43690942
H  -0.17994900 -3.41515859  0.13328908
H   0.20142345  3.43158595 -0.81744506
H   1.89624338 -0.58969339 -3.11332347
H  -1.25369759  2.97259585  0.83262513
H  -1.60223408  2.05978839  2.17421411
H   1.04690437  3.50723139 -2.88476016
H   1.72766094  1.49062983 -4.28757025
H   0.96074657 -1.94352086 -1.13887049
O   1.77111225 -3.48142370 -1.55219580
H   2.56267719 -3.33106836 -2.14449526
H   1.94592838 -4.26379999 -0.95442797
O  -2.07907982  4.57439105 -1.24078776
H  -2.78110332  3.91273848 -1.50418688
H  -2.29223938  4.94433180 -0.33651663
O  -0.78448124 -3.67762311 -2.26848342
H  -0.92299671 -4.40163930 -2.94421508
H   0.18812065 -3.61127885 -2.04567458
O  -3.51061459  0.12508837 -0.36129691
H  -2.97055264  0.93113295 -0.11917044
H  -3.45579739 -0.54698118  0.37715982
O  -0.12843723  3.64999739  4.18465875
H  -0.47019978  3.93408267  5.08047889
H  -0.57407017  4.19062773  3.47112439
O   0.91610222 -0.91077646 -5.77761342
H   0.86107998  0.06075160 -6.00805928
H   0.05462627 -1.20436986 -5.36329295
O  -0.55916710 -2.04188283  6.56420348
H   0.10843163 -2.73630079  6.83270906
H  -0.09057827 -1.29194101  6.09728740
O   2.91603546  2.75098769  0.96197389
H   2.63041620  2.42368571  1.86269353
H   2.21920519  3.36714522  0.59485410
O  -2.98776264  4.96778742  1.43503545
H  -3.21349258  4.07307498  1.82043813
H  -3.80039711  5.55044238  1.44686578
O  -4.29824467  2.76995246  2.31231664
H  -4.85366840  1.96189276  2.11599229
H  -4.86386318  3.46240679  2.76018117
O   4.52458982  1.05983512 -4.82878186
H   4.89491348  1.44942538 -5.67203738
H   4.08507042  0.18463294 -5.03088071
O   0.69432430  0.08342139  5.51017259
H   0.40353374  0.89188544  6.02186130
H   1.29405003  0.36170165  4.75991414
O   0.10668163  1.80340449 -6.58986451
H   0.93724995  2.31998126 -6.79796054
H  -0.63494415  2.43807761 -6.37265374
O   0.10206490  5.30862490 -4.67917086
H  -0.07462521  5.74314086 -3.79600836
H  -0.75351353  4.94749133 -5.05007388
O  -3.23414249 -3.72938665 -0.80534388
H  -2.32642860 -3.80205186 -1.21859481
H  -3.92131824 -3.63205942 -1.52528693
O   3.66381721  0.04699485  0.82389901
H   3.61149101  1.04342524  0.89014886
H   4.03636675 -0.20863565 -0.06821086
