78
N16 tacrine microhydration cluster; source_frame=8065; time_ps=8081.130000; n_waters=16; atoms=78; max_selected_waterO_min_distance_A=3.672824; selection=nearest_16_water_oxygens_to_tacrine_heavy_atoms
N   0.23863248  0.20963701 -1.37616630
N  -0.10380518 -0.45132987  2.67602257
C  -0.37424358 -3.81765381 -0.27608164
C  -0.74655207 -2.73335663  0.77337984
C  -1.00116654 -3.38310734 -1.62099846
C  -0.34689625 -1.22735325  0.36518733
C  -0.34495052 -2.10376755 -2.11816981
C  -0.24164402 -0.99134080 -1.02181681
C  -0.14868652 -0.14160697  1.29150538
C   0.14080490  1.17772420  0.79627422
C   0.28087831  1.35882123 -0.59602614
C   0.32296362  2.37068113  1.55335669
C   0.72770301  2.54206689 -1.15177107
C   0.72833739  3.56386407  1.04387001
C   0.86862496  3.62672170 -0.33856579
H   0.71264342 -3.88554064 -0.22952267
H  -0.72882100 -4.80058352  0.03411964
H  -1.83355304 -2.69694583  0.84551338
H  -0.40407606 -3.04992263  1.75856833
H  -0.77233430 -4.16712729 -2.34283563
H  -2.08461924 -3.28724925 -1.54999500
H   0.67568106 -2.37546889 -2.38759442
H  -0.80741867 -1.78652589 -3.05282541
H   0.18452142  2.36065706  2.62439970
H   1.05081598  2.55589708 -2.18221136
H  -0.17542051 -1.44528977  2.84038405
H  -0.51849171  0.20610746  3.32093481
H   0.91036866  4.39325937  1.71122793
H   1.13724343  4.55567201 -0.81949725
H   0.31025704  0.33254655 -2.37609788
O  -2.77604841 -1.67322747  3.68613330
H  -3.67292904 -1.40022628  4.03409282
H  -2.70510482 -2.67067925  3.69366256
O  -2.50690626  2.25967344  2.96251527
H  -2.05771469  2.78059038  2.23665515
H  -3.38849162  2.67981275  3.17766658
O   1.56409980  0.60227140 -4.26898607
H   1.68057609  1.37326082 -4.89509185
H   2.33402563  0.57124074 -3.63160761
O  -2.94343447  1.66644510 -0.70397904
H  -3.43258189  0.93536027 -0.22832211
H  -2.86937737  2.46310266 -0.10410174
O  -2.46328281  4.15905794  0.86318342
H  -3.44502925  4.34890874  0.87460772
H  -1.97566318  4.94751485  0.48826710
O   3.17540027  5.81670793  1.34859435
H   3.28675509  5.91605695  0.35979203
H   3.64166022  4.98674424  1.65480081
O   3.77984930  3.42857774  2.51168219
H   4.57542396  3.66744550  3.06846181
H   3.27374865  2.68808969  2.95388023
O  -0.85736965 -0.73128287  6.03084747
H   0.02779699 -1.19434706  6.07614318
H  -1.45415615 -1.21489731  5.39056388
O   1.46311767  3.80919488  4.52048151
H   1.93343783  2.93444570  4.63715879
H   0.89742667  3.99329694  5.32428495
O   1.60385407 -3.96303956 -4.46257575
H   1.40460397 -4.83114211 -4.91721543
H   1.63889492 -3.23087851 -5.14280566
O  -1.53514861  1.43051561 -4.23259982
H  -1.32376503  1.64840062 -5.18540772
H  -1.83077191  2.25997861 -3.75868281
O  -2.37549137  3.63613351 -2.66445347
H  -2.55448150  2.91958459 -1.99027260
H  -3.08147787  4.34113630 -2.59697600
O  -3.23133849 -5.47268287  1.23648373
H  -4.22402405 -5.40206615  1.33440296
H  -3.01377987 -6.11326663  0.50005952
O  -2.08554768 -4.69352070  3.53494159
H  -2.40110969 -4.78173892  2.59014646
H  -1.08814715 -4.76074759  3.56087534
O   1.31733496 -2.19139592  5.57160751
H   1.93051864 -1.74588935  6.22393409
H   1.19940759 -3.15104357  5.82688991
O   3.19424654  6.22088083 -1.50108997
H   2.75814939  5.95917829 -2.36209593
H   4.18123079  6.07541593 -1.56966022
