78
N16 tacrine microhydration cluster; source_frame=2621; time_ps=2626.242000; n_waters=16; atoms=78; max_selected_waterO_min_distance_A=3.714285; selection=nearest_16_water_oxygens_to_tacrine_heavy_atoms
N  -0.96602534  0.79942535  0.79349809
N   1.71671463 -1.37790085 -1.42844481
C   0.14638735 -3.01724507  2.41237907
C   0.55577291 -2.69479157  0.92089205
C  -1.23350476 -2.39755704  2.83021836
C   0.27476741 -1.21909596  0.48413091
C  -1.26759743 -0.95708729  2.55292921
C  -0.66924261 -0.47698762  1.20257335
C   0.86484826 -0.60791566 -0.65013642
C   0.53819109  0.70571254 -1.06223006
C  -0.42317509  1.46589921 -0.32196708
C   1.04883266  1.28308986 -2.27700515
C  -0.88751268  2.71942399 -0.78389497
C   0.65737046  2.54775499 -2.66446157
C  -0.35582685  3.22727512 -2.00848098
H   0.29768456 -4.09182336  2.51480441
H   0.91788841 -2.49804093  2.98098569
H   1.62196089 -2.90114762  0.82729654
H   0.10226310 -3.31893613  0.15090995
H  -1.87754440 -3.00219895  2.19168715
H  -1.59190654 -2.65335347  3.82732253
H  -2.29586672 -0.59935834  2.60577123
H  -0.68828963 -0.43314721  3.31318502
H   1.86552358  0.85621808 -2.84020753
H  -1.68572067  3.19760488 -0.23561807
H   1.90183116 -2.32919575 -1.14407153
H   2.07324935 -1.13744713 -2.34231849
H   1.03483773  3.10958217 -3.50604911
H  -0.60802125  4.24481104 -2.26813169
H  -1.73013949  1.35718892  1.14723425
O   2.65656663 -4.08490731 -1.82627149
H   3.35469724 -3.97257115 -2.53337426
H   2.98838187 -4.71926381 -1.12806697
O   2.51371206  0.04199813  2.16114287
H   3.22572137 -0.08705117  1.47093372
H   2.00233997  0.87756036  1.96030908
O  -3.47544169  2.38792013  1.75340228
H  -3.27151369  2.13224624  2.69841270
H  -3.74801563  3.34946273  1.71966009
O  -0.18619274 -4.99714066  5.02029278
H   0.53058017 -4.38764836  5.35904901
H  -1.04061174 -4.80821969  5.50431441
O   1.90350144  2.70960258  1.72474532
H   2.29247962  2.97235702  0.84176402
H   1.21885108  3.38397001  2.00129943
O  -4.43452858 -2.50906827  3.89335303
H  -4.31739115 -1.95961548  4.72062539
H  -5.18415569 -2.13440396  3.34774725
O  -1.21786045  3.38157676 -5.35930533
H  -0.40730261  3.86046408 -5.69644542
H  -0.98532175  2.42852996 -5.16532798
O  -1.09805988  0.72196601 -4.98704238
H  -0.56797432 -0.10845925 -4.81556697
H  -1.84321593  0.51666711 -5.62154670
O  -0.06952631 -1.90984894 -4.33963389
H  -0.92265844 -2.33695294 -4.04005523
H   0.59504999 -2.61998631 -4.57210727
O  -3.82782244 -4.56624772  2.07491045
H  -4.72914433 -4.98000027  1.94673781
H  -3.92167687 -3.71734025  2.59505134
O   2.64123107  2.97913669 -5.52035422
H   1.91618908  3.63247226 -5.73822303
H   3.49386490  3.47253059 -5.34837146
O  -2.50648617  1.90078615  4.20331140
H  -2.22557615  1.24816154  4.90699490
H  -2.60956406  2.80767606  4.61187731
O   3.37716723 -4.58949067  2.20115237
H   3.25418318 -5.26627614  1.47531705
H   3.52009250 -3.68706490  1.79470592
O  -1.60615729 -6.13808610  2.80863445
H  -0.97442269 -5.70629861  3.45242815
H  -2.36598419 -5.51612546  2.61935084
O   2.36686579  5.74634622 -2.02919669
H   2.87978522  5.24561857 -1.33192677
H   2.91496495  6.51534782 -2.35817046
O   4.78063131 -0.02662160 -3.03542085
H   5.05731345 -0.92850663 -3.36716027
H   5.47784544  0.64701961 -3.28057427
