78
N16 tacrine microhydration cluster; source_frame=100; time_ps=100.200000; n_waters=16; atoms=78; max_selected_waterO_min_distance_A=3.658600; selection=nearest_16_water_oxygens_to_tacrine_heavy_atoms
N   1.30118740 -0.30754827 -0.45759004
N  -2.57359277  0.34892871  0.77128536
C   0.16480757 -2.37397550  2.97285707
C  -0.85285508 -1.29597257  2.40884692
C   1.63631285 -1.93375228  2.88642008
C  -0.35432398 -0.54374574  1.14857680
C   2.06705702 -1.74108241  1.36632986
C   0.96788205 -0.81824087  0.70280594
C  -1.23424064  0.21196486  0.34829427
C  -0.77814113  0.82431723 -0.80922597
C   0.58693708  0.50437762 -1.29774909
C  -1.52095329  1.77627589 -1.62430745
C   1.08932436  1.02299811 -2.46145337
C  -0.88720237  2.40032126 -2.76781934
C   0.38780094  1.92513396 -3.18727105
H  -0.12591135 -2.64061807  3.98896939
H   0.02892662 -3.31947444  2.44781572
H  -1.84672605 -1.69090484  2.19825489
H  -0.94811641 -0.49728273  3.14445550
H   1.72521222 -1.06012510  3.53215415
H   2.23804177 -2.69220422  3.38719279
H   3.12967790 -1.55153392  1.21464545
H   2.04986394 -2.76951192  1.00558550
H  -2.40498649  2.24854972 -1.22201043
H   2.11896718  0.80753829 -2.70601981
H  -3.13818275  0.84198023  0.09435201
H  -2.97425472 -0.03758310  1.61400611
H  -1.41045367  3.20251967 -3.26690476
H   0.90778697  2.31136061 -4.05147212
H   2.17419017 -0.63060926 -0.84950500
O  -4.85834800  1.91987158  0.14396656
H  -4.93928873  2.33800532  1.04873873
H  -5.57594048  1.23299433  0.02881176
O  -1.30107581  1.38893248 -5.59249192
H  -0.82314306  0.51205279 -5.64408617
H  -0.83711969  2.05620219 -6.17515450
O  -4.44904958 -1.20884012  2.60495514
H  -4.62492477 -1.81907199  1.83250094
H  -5.31619012 -0.85020898  2.95057232
O   1.19892515 -5.18723892  4.22751565
H   1.39818133 -5.84643625  4.95260567
H   0.44044805 -4.60000633  4.51012916
O   1.65377296 -1.84550403  6.14385671
H   1.73248971 -0.86328672  6.31430502
H   1.68424142 -2.33820985  7.01351900
O   3.67416919 -2.52868293 -1.44476061
H   4.36883415 -2.26727556 -2.11491447
H   2.83450187 -2.79123233 -1.92018347
O   1.29732169 -2.68519758 -2.79688578
H   1.54605950 -2.52134393 -3.75149613
H   0.42863310 -3.17909358 -2.75884824
O  -1.48100050 -4.59022735  4.97180361
H  -2.13866862 -3.84795879  4.84331197
H  -1.76284336 -5.38263915  4.43083400
O  -4.74135458  2.62892844 -2.45730572
H  -4.87623965  1.70637252 -2.81882601
H  -4.65835749  2.58790232 -1.46160083
O   3.95819391 -4.47632335  0.42945308
H   4.22561372 -5.41894840  0.22959305
H   4.05472053 -3.92030214 -0.39609104
O  -1.11566999  4.94911029 -5.15423518
H  -1.96782228  5.15285899 -4.67223626
H  -0.34376791  5.31985594 -4.63779049
O  -3.71180307  2.75191523 -4.82179051
H  -4.01253258  2.67953421 -3.87083178
H  -2.84359156  2.26869418 -4.93451147
O  -2.32822107  2.96619345  3.17161626
H  -2.62431263  2.60891749  4.05744023
H  -2.18817877  2.20702864  2.53596098
O   3.36659921  2.20498110 -5.13858633
H   3.81373990  1.93819453 -4.28483563
H   4.06064857  2.44053485 -5.81888800
O   1.46632565 -5.44722770  1.47937638
H   2.27134264 -4.95189451  1.15289033
H   1.36912096 -5.31221793  2.46544118
O   3.47699703  1.78077628  1.61366708
H   2.73335827  1.89801909  2.27188856
H   4.15848554  1.15258528  1.98910118
