78
N16 tacrine microhydration cluster; source_frame=1814; time_ps=1817.628000; n_waters=16; atoms=78; max_selected_waterO_min_distance_A=3.514108; selection=nearest_16_water_oxygens_to_tacrine_heavy_atoms
N   0.06259006  1.32044716 -0.84677824
N  -0.20441014 -2.50665550  0.93129972
C   3.60748046 -0.74783115 -0.27300557
C   2.40205997 -1.54968004  0.06274978
C   3.47610324  0.10046692 -1.54969916
C   1.10843891 -0.71038513 -0.04174170
C   2.32210391  1.08250303 -1.47448954
C   1.15640205  0.47897263 -0.78911242
C  -0.09676892 -1.16776590  0.45773593
C  -1.19532448 -0.32437210  0.52309004
C  -1.12081582  0.99117870 -0.09819230
C  -2.38659531 -0.59591560  1.24523846
C  -2.23046261  1.83305235 -0.09342846
C  -3.46090657  0.30309982  1.33595506
C  -3.43989474  1.49288483  0.61037842
H   3.89494842 -0.06249170  0.52434817
H   4.44294685 -1.44349747 -0.35139498
H   2.32770961 -2.25227337 -0.76727113
H   2.41209453 -2.11012630  0.99757567
H   4.42521327  0.63224382 -1.61680779
H   3.45744556 -0.46885328 -2.47901472
H   2.61719364  1.96187897 -0.90202078
H   2.07508701  1.51137371 -2.44564995
H  -2.41973740 -1.46646957  1.88354698
H  -2.15768201  2.80652137 -0.55544647
H  -1.03779275 -2.89969521  1.34493414
H   0.58646911 -3.12827663  0.84076086
H  -4.31559807 -0.00680428  1.91893187
H  -4.26018721  2.19527073  0.59720007
H   0.03763049  2.25019426 -1.24053845
O   0.48450511  3.95258064 -2.15098795
H   1.23978370  4.55850644 -1.90117296
H   0.22150749  4.12191291 -3.10080895
O  -2.74214513 -4.26356487  1.21782699
H  -2.75394494 -5.18766575  0.83586052
H  -2.88190228 -3.59804134  0.48465172
O   2.84827560  1.21914072  2.11319533
H   1.90756934  1.48144550  2.32829756
H   3.11234802  0.43497295  2.67475251
O  -0.41174275 -5.69257336  1.23234061
H  -0.11162621 -6.60445671  0.95234302
H  -0.87515980 -5.75106983  2.11654791
O   0.58298152  3.28171272  1.72027078
H  -0.16030938  3.91163177  1.49505773
H   1.44884151  3.65531201  1.38753978
O   2.14774650 -4.80120258  0.84633246
H   2.58576148 -4.47788601  1.68514613
H   1.16360610 -4.89286880  0.99820486
O  -0.57399327  1.74826736 -4.04934677
H  -0.53169495  2.74225707 -4.15032229
H  -1.52548367  1.46582527 -3.92731651
O  -1.43807465 -1.43718748 -2.57029041
H  -0.55343491 -1.44572859 -3.03648743
H  -2.14373833 -1.11297779 -3.20031103
O   5.25597137  0.94047661 -4.25433382
H   4.81073230  0.27321644 -4.85143122
H   5.89247650  0.46904821 -3.64391121
O   6.93709415 -0.57265358  0.04085794
H   7.26730960  0.27075119  0.46468035
H   6.49801772 -1.14426594  0.73401872
O  -4.27982957 -2.83932381  2.90247594
H  -3.69570309 -3.51610165  2.45440500
H  -5.15141780 -2.77714233  2.41619663
O  -4.35683877  3.93398161 -1.67441734
H  -4.02042681  4.33846552 -0.82399425
H  -4.05466134  4.48862774 -2.44969591
O   3.38590282 -2.97407608 -3.06716618
H   3.39268440 -3.73749523 -2.42129883
H   4.28943485 -2.54600315 -3.08673987
O   0.83932632 -3.14989357  4.15504077
H   1.03689998 -2.87232189  5.09521023
H   0.06000846 -3.77649670  4.14928296
O  -6.89719230 -0.37398319  1.49101702
H  -6.80137116 -1.35696583  1.33428803
H  -7.86335010 -0.14927845  1.61769286
O   5.90639728 -1.73488884  2.19471625
H   6.15612548 -2.46557503  2.83011708
H   5.00424808 -1.37724047  2.43599320
