78
N16 tacrine microhydration cluster; source_frame=3931; time_ps=3938.862000; n_waters=16; atoms=78; max_selected_waterO_min_distance_A=3.852224; selection=nearest_16_water_oxygens_to_tacrine_heavy_atoms
N  -1.10940479 -0.68393873 -0.65133705
N   1.96798922  1.16974808  1.31485090
C   0.31517865  2.93733527 -2.32130089
C   1.29638459  2.11607339 -1.51351204
C  -0.39859317  2.01507737 -3.37466898
C   0.61746957  0.97514512 -0.69262018
C  -1.08550666  0.75172450 -2.70855703
C  -0.46374057  0.33863665 -1.34127321
C   1.02499177  0.51605250  0.58667765
C   0.39074971 -0.60571168  1.21131430
C  -0.71018051 -1.18936323  0.53978930
C   0.70975281 -1.11668371  2.47480116
C  -1.42710327 -2.25760053  1.11106596
C  -0.07105182 -2.18203901  3.02748308
C  -1.05693553 -2.78445600  2.33728704
H  -0.42547344  3.41500832 -1.67992582
H   0.84021546  3.68551232 -2.91515865
H   2.08569552  1.73009469 -2.15857687
H   1.87639405  2.75318696 -0.84584846
H  -1.14248966  2.58969332 -3.92651644
H   0.31481435  1.56174781 -4.06288519
H  -2.12187312  1.05855776 -2.56749954
H  -0.98305438 -0.10283063 -3.37739077
H   1.55892064 -0.74707006  3.03040705
H  -2.07324241 -2.81662820  0.45046530
H   2.70626380  1.42873360  0.67611990
H   2.31574084  0.79282452  2.18496428
H   0.17293145 -2.54397462  4.01534662
H  -1.62902091 -3.61921762  2.71450052
H  -1.88451026 -1.08517049 -1.15959349
O   4.21402861  1.73748233 -0.34774675
H   4.25323750  1.93960597 -1.32632151
H   4.59479596  0.82821204 -0.17968836
O   2.62924601  1.14186074  4.09232149
H   3.08552910  2.03032710  4.04298697
H   2.24113967  1.01672293  5.00540075
O   0.20758893  3.68408991  1.45697126
H   0.03866841  2.71777846  1.26278601
H  -0.61490749  4.09345366  1.85183821
O  -1.87600826  0.36008479  3.26004133
H  -2.68858741 -0.07123445  3.65205965
H  -1.15239261 -0.32261823  3.15856276
O  -3.29658244 -2.62890695 -1.71731129
H  -3.44105457 -3.43658040 -1.14565458
H  -3.06489585 -2.91560815 -2.64689388
O   2.55488421 -3.12127755  4.46215067
H   2.85684420 -3.18816446  3.51117811
H   3.20444562 -2.56433843  4.97972975
O  -4.19983600 -3.76348375  2.31106958
H  -3.90842555 -3.16376184  3.05633078
H  -4.73885845 -3.23866723  1.65226564
O   0.83744122  5.10212280 -4.78641167
H   1.48814036  5.47314002 -4.12388911
H  -0.09079383  5.18354656 -4.42343655
O   4.28120829  2.61934258 -2.89245358
H   5.14490344  3.12290551 -2.87111845
H   3.86752011  2.70537736 -3.79879799
O  -3.08855651 -2.75938485  5.09483156
H  -2.42179416 -2.02653192  5.23031244
H  -3.75429557 -2.74642347  5.84090338
O  -2.81543563  2.09839989 -6.00124791
H  -3.18723319  2.53867366 -5.18398108
H  -3.55653404  1.91372372 -6.64674582
O  -1.16505931 -0.65444635  6.12449465
H  -1.85021995 -0.26806711  6.74196253
H  -0.39197563 -0.02471517  6.04847250
O  -0.55537532  6.51984383 -2.39896669
H  -1.11588786  6.71852709 -1.59500780
H   0.30963780  7.01729252 -2.33341160
O   1.14563157 -5.32092260  4.53798113
H   0.69909455 -5.59763597  5.38888178
H   1.51817443 -4.39871763  4.64166842
O  -2.42684196 -5.41181157  4.56980715
H  -2.59029888 -6.17941163  5.18954096
H  -2.89164375 -4.59764932  4.91780005
O   1.99564864  2.87487580 -6.26741507
H   2.99289729  2.88661315 -6.34060731
H   1.66624190  3.79466559 -6.05416038
