78
N16 tacrine microhydration cluster; source_frame=1915; time_ps=1918.830000; n_waters=16; atoms=78; max_selected_waterO_min_distance_A=3.681204; selection=nearest_16_water_oxygens_to_tacrine_heavy_atoms
N  -0.50479601 -0.69534777 -1.22197797
N   0.80083992  1.12680997  2.34811543
C   3.29884340 -1.75679825  0.21831630
C   2.29684259 -1.21428970  1.23660754
C   2.65390779 -2.80420158 -0.64696099
C   1.04229404 -0.58621083  0.58493136
C   1.41940643 -2.13932178 -1.42891289
C   0.60568096 -1.11447404 -0.63092543
C   0.34270717  0.48598423  1.16582273
C  -0.82728241  0.94946518  0.43875717
C  -1.32643126  0.29876628 -0.75189616
C  -1.49114369  2.12381126  0.84160803
C  -2.51242922  0.78102197 -1.41729619
C  -2.64500235  2.60940172  0.19419788
C  -3.15343736  1.93538334 -0.93038680
H   3.70570184 -1.01222412 -0.46591736
H   4.12260439 -2.17500160  0.79678295
H   2.04779483 -2.02245353  1.92431877
H   2.85615827 -0.49854265  1.83907913
H   3.40674879 -3.29759477 -1.26169230
H   2.31718685 -3.68428419 -0.09907939
H   1.76881220 -1.63941292 -2.33229949
H   0.82976772 -2.97477243 -1.80633666
H  -1.20846127  2.66850044  1.73031734
H  -2.83261250  0.34479918 -2.35195805
H   0.10844804  1.58766844  2.92109273
H   1.64429380  0.82522597  2.81473325
H  -3.03431152  3.53485205  0.59216855
H  -4.00261877  2.27617743 -1.50410296
H  -0.86411618 -1.14903508 -2.04972006
O  -1.64415859 -1.97945038 -3.46334626
H  -1.62243436 -2.96428571 -3.29122044
H  -2.52805231 -1.72960172 -3.85870434
O   1.94714786  2.90571727  4.43481080
H   2.73433496  2.32690038  4.64766589
H   2.24415208  3.85756912  4.35887414
O  -1.61406277 -1.01943932  3.03417192
H  -2.33729075 -0.39992116  3.33935724
H  -0.74044655 -0.73046641  3.42569373
O  -2.10310219  3.73112144 -3.49265553
H  -1.52212857  3.88463440 -2.69334103
H  -1.61702059  3.15872612 -4.15302540
O  -0.92025517  2.72736158  4.68666249
H   0.05161478  2.95521059  4.62704903
H  -1.18762778  2.65637388  5.64763737
O  -2.21688960 -2.98816762  0.45852993
H  -1.52849530 -3.07608233  1.17851923
H  -2.71338747 -2.12802325  0.57532690
O   0.66626026  2.14070787 -2.72266699
H   1.08249332  2.66318693 -1.97851254
H   1.29500963  1.42090573 -3.01687648
O   5.91459467 -2.57302771 -1.75282313
H   6.79028322 -2.24646477 -1.39711882
H   5.74633695 -3.50190840 -1.42286851
O   4.53165914 -0.24525044 -2.70725753
H   4.94471170 -1.10168741 -2.39757516
H   4.29628374  0.31705906 -1.91453625
O  -3.38270448  1.23820915  3.67749987
H  -2.73455904  1.46187677  4.40542875
H  -4.10610114  1.92816033  3.65171890
O   2.36142542 -3.45077668 -4.56843545
H   1.48929788 -3.93140016 -4.47681214
H   3.06016924 -3.92270909 -4.03081490
O  -2.77624868  6.14037170 -0.03277136
H  -2.91710471  5.59359445  0.79257344
H  -3.22515534  7.02749195  0.07447217
O  -4.02108286 -1.19433312  1.10717915
H  -4.55771492 -1.12799040  0.26597474
H  -4.14912544 -0.36464904  1.65052913
O   0.46041872 -1.28241170  5.00019275
H   0.21094371 -1.86101378  5.77671169
H   1.33102132 -0.82815121  5.18913428
O   1.40192749 -5.89721690 -2.14114358
H   1.95326234 -6.08328305 -1.32787253
H   0.47581293 -6.24845610 -2.00351121
O   1.50917436  3.69306984 -0.60296132
H   2.16856958  4.21208372 -0.05906560
H   0.67032196  4.22711744 -0.70841576
