78
N16 tacrine microhydration cluster; source_frame=9779; time_ps=9798.558000; n_waters=16; atoms=78; max_selected_waterO_min_distance_A=3.599953; selection=nearest_16_water_oxygens_to_tacrine_heavy_atoms
N   0.46673349  0.45889740  1.28122654
N  -1.17217395 -0.81842012 -2.32322035
C   1.38028291 -3.54841537  0.27886429
C   0.54088167 -2.78985662 -0.78945599
C   0.93028549 -3.29713745  1.73728600
C   0.15431646 -1.31568642 -0.34371386
C   1.14595798 -1.77048035  2.03982010
C   0.53841356 -0.85353632  0.93951073
C  -0.55785224 -0.38613291 -1.14058409
C  -0.63717219  0.98118382 -0.72682581
C  -0.13540789  1.38290958  0.54947796
C  -1.10851237  2.07697277 -1.50433216
C  -0.01407954  2.73696499  0.97938766
C  -1.01933047  3.37129002 -1.08270607
C  -0.51234290  3.77144699  0.10526505
H   1.21901658 -4.62465067  0.21713295
H   2.45580295 -3.45109720  0.13092365
H   1.10957006 -2.75311966 -1.71861897
H  -0.37764117 -3.30128880 -1.07729731
H  -0.14832541 -3.43828697  1.80639877
H   1.45278934 -3.95587463  2.43093910
H   0.72943452 -1.44850655  2.99425259
H   2.20827726 -1.54349012  1.95008221
H  -1.49597594  1.89280968 -2.49547110
H   0.33136133  2.92293720  1.98561039
H  -0.88770529 -1.76435347 -2.53390465
H  -1.21904608 -0.21056242 -3.12846050
H  -1.35969206  4.15987186 -1.73745213
H  -0.49506709  4.82825069  0.32722607
H   0.77004674  0.71021538  2.21124783
O   1.14698461  1.07262020  3.75979176
H   1.62237266  1.92645245  3.97186699
H   0.69773057  0.72768097  4.58392086
O  -0.35059210 -3.05503244 -3.91380653
H  -0.57272956 -3.97930188 -4.22425828
H   0.45208982 -2.72129745 -4.40809712
O   3.31659892  1.42650681  1.36856976
H   4.10049680  2.00981693  1.58129921
H   2.78223804  1.84171276  0.63232079
O  -4.01227805 -1.25338240 -3.39307747
H  -3.26316210 -1.14496727 -2.73957024
H  -4.72022483 -0.57275410 -3.20451031
O   0.01379922  2.55697136 -4.55504928
H  -0.71922156  3.23016052 -4.45759640
H   0.60056833  2.81202106 -5.32358823
O   0.75652078  5.46497135  2.65042915
H   0.07125047  6.17402153  2.48413887
H   1.43417075  5.80297928  3.30353012
O  -2.05899188  4.68179779  2.88999977
H  -2.40175482  3.90384846  3.41660061
H  -1.05916926  4.68247967  2.90883484
O   3.17192224 -5.73791451 -1.67966375
H   3.28254035 -5.39167161 -2.61126385
H   2.87860492 -6.69338859 -1.71182213
O  -3.56662223  4.46228771 -3.15166149
H  -4.35908839  4.84673767 -3.62515364
H  -2.72765586  4.78510361 -3.58975372
O   2.93349603 -1.47572107  5.06141987
H   3.18789152 -0.56657953  4.73165550
H   3.31122354 -2.17017717  4.44900360
O  -1.15196749  0.08269815 -5.73085079
H  -0.38158557  0.59892063 -6.10505328
H  -1.91616866  0.70371704 -5.55669127
O   3.94774345 -5.88504465  0.96408978
H   4.94251183 -5.78307481  0.97030678
H   3.60431388 -5.74681385  0.03513947
O   4.06305459 -3.80077667  3.33840981
H   3.43673805 -4.41151948  3.82289066
H   4.39342168 -4.25160880  2.50918903
O   3.66630748 -1.22959871 -1.50382051
H   3.98025277 -0.52565784 -0.86671314
H   2.76351026 -0.98212643 -1.85555134
O  -2.38645980 -2.86255283  3.04017868
H  -2.19540641 -3.22289581  2.12713280
H  -2.84979102 -3.56199999  3.58432808
O  -0.71227595  7.18483524 -1.02099762
H  -0.89845893  7.41843204 -0.06665621
H  -1.55013796  7.28354721 -1.55787954
