78
N16 tacrine microhydration cluster; source_frame=806; time_ps=807.612000; n_waters=16; atoms=78; max_selected_waterO_min_distance_A=3.531970; selection=nearest_16_water_oxygens_to_tacrine_heavy_atoms
N   1.02975947 -0.93671112 -0.58564777
N  -1.46277421  1.89000912  1.20498257
C  -0.74127668 -2.01463871  3.12555580
C  -0.66918462 -0.48782616  2.75951748
C   0.61055953 -2.63718014  2.72483425
C  -0.25565427 -0.22279911  1.27341061
C   1.04675013 -2.49658566  1.24476700
C   0.56904132 -1.16918831  0.64673309
C  -0.70499795  0.92400093  0.52638416
C  -0.30188649  1.06598682 -0.81097336
C   0.55593402  0.07375546 -1.37679214
C  -0.72376722  2.18865032 -1.61886044
C   0.99823195  0.26921101 -2.66534538
C  -0.44741720  2.25112553 -2.99755592
C   0.49668223  1.30219002 -3.45100994
H  -0.97243780 -2.08535843  4.18841200
H  -1.58546346 -2.54796200  2.68850212
H  -1.70855134 -0.16729527  2.83078127
H  -0.24530404  0.13516731  3.54711132
H   1.32650382 -2.01507740  3.26196699
H   0.63600642 -3.64077740  3.14938765
H   2.12279135 -2.59049778  1.09842663
H   0.40956790 -3.18226795  0.68625145
H  -1.27342885  3.00537987 -1.17475910
H   1.68194968 -0.43930225 -3.10912437
H  -1.29538053  2.77132721  0.74091511
H  -1.31495279  1.89724083  2.20408039
H  -0.71459001  3.11184998 -3.59267921
H   0.93378264  1.42340393 -4.43113728
H   1.39299685 -1.74693947 -1.06698914
O  -4.29790395  1.05189342  0.96344738
H  -3.32251638  1.27094860  0.93823700
H  -4.44001287  0.22583599  1.50882320
O   3.11674792 -2.58711033 -1.92003078
H   3.25856835 -3.38299065 -1.33141918
H   3.61710459 -2.71271400 -2.77669067
O   3.90827567  0.11302395 -0.37991066
H   4.11504752 -0.80820732 -0.70942230
H   3.91048533  0.11765118  0.62007599
O  -2.52238077 -1.03800087 -1.16221638
H  -2.79883378 -1.51903896 -0.33024426
H  -3.09806913 -0.22989445 -1.28690166
O  -1.32979196  3.01082153  4.17907028
H  -0.46826738  2.84374828  3.69963150
H  -1.13829988  3.32325096  5.10951071
O  -1.86932939 -1.05089073 -3.82808132
H  -2.64542669 -0.54395466 -4.20316715
H  -1.93463128 -1.07018070 -2.83040257
O   4.09575278  0.26909370 -3.96854324
H   3.91061789  0.94944592 -4.67766018
H   4.05734069  0.70560760 -3.06966705
O  -0.23993581  3.58774490 -6.09316130
H   0.67984111  3.20469875 -6.17852087
H  -0.38727372  4.26479931 -6.81419439
O   2.14385993 -5.74151974  1.25026016
H   2.26245505 -6.62983112  0.80659657
H   1.24268920 -5.37279396  1.02237301
O   1.34422023  2.24586887  3.24777203
H   1.20844752  1.81943817  4.14204388
H   2.01792819  1.72133369  2.72721462
O  -3.59548467 -3.83567314  3.71959190
H  -4.03032678 -3.04591637  4.15225439
H  -3.91374772 -3.91544037  2.77495174
O   1.36818988  5.18854065 -2.86756725
H   0.85981089  5.59856434 -3.62481995
H   0.74047476  4.98498745 -2.11620922
O  -0.08252328 -5.07906322  5.12608414
H  -0.63661950 -4.27426224  4.91330986
H  -0.33843320 -5.83027058  4.51764517
O   4.03488595 -3.93019276  2.35880165
H   4.97632033 -4.04994183  2.04358559
H   3.44388396 -4.59662132  1.90428143
O  -2.00280851  5.37516613 -2.30799980
H  -1.38988679  5.17111034 -1.54465981
H  -1.82927602  6.30386372 -2.63572903
O   0.29709155 -3.12931042 -3.32357616
H  -0.22851938 -2.34508877 -3.65331764
H   1.12449176 -3.23194866 -3.87573071
