78
N16 tacrine microhydration cluster; source_frame=6149; time_ps=6161.298000; n_waters=16; atoms=78; max_selected_waterO_min_distance_A=3.741600; selection=nearest_16_water_oxygens_to_tacrine_heavy_atoms
N  -1.12477099 -0.37776890  0.73199150
N   2.22158254  0.29629192 -1.43413523
C   1.99171699  1.22915421  3.07286569
C   2.27464879  0.93750725  1.60202762
C   1.04348005  0.18221531  3.58259317
C   1.08226121  0.38643227  0.72517702
C  -0.30740534  0.28967628  2.89829466
C  -0.10753142  0.10346375  1.37958070
C   1.07425083  0.18133984 -0.67361239
C  -0.13971697 -0.13287678 -1.39445141
C  -1.26197135 -0.49826946 -0.61325386
C  -0.28965365 -0.15273514 -2.79187253
C  -2.41487300 -0.99902096 -1.17680672
C  -1.51552092 -0.47570076 -3.37192372
C  -2.52649676 -0.96970882 -2.53647450
H   2.96187318  1.11482391  3.55642053
H   1.57771076  2.22619877  3.22320005
H   2.72428764  1.72895584  1.00241491
H   2.93144048  0.06970940  1.66245290
H   1.40887225 -0.84051456  3.48979208
H   0.81807865  0.30438957  4.64201185
H  -1.03279959 -0.40809097  3.31665250
H  -0.76136958  1.24919758  3.14595529
H   0.52496780  0.00899372 -3.48226097
H  -3.25740515 -1.35468044 -0.60231093
H   2.21456397 -0.18508568 -2.32201246
H   3.10986007  0.30752811 -0.95357636
H  -1.67965686 -0.42069283 -4.43796042
H  -3.35593783 -1.48274555 -3.00039247
H  -1.96989428 -0.48443260  1.27466032
O   2.73847831 -1.16835060 -3.69867447
H   2.22542299 -1.88413754 -4.17240814
H   3.01260675 -0.46506252 -4.35460118
O  -3.46933257 -1.27950706  2.21440050
H  -4.20802104 -0.98083916  1.61013481
H  -3.69398200 -2.17533054  2.59784910
O   4.93914760  0.59889660 -0.19807032
H   5.41315974  0.56017361  0.68159601
H   5.52220310  1.05390797 -0.87113169
O   3.58466686 -2.38232746 -1.31364373
H   3.39141239 -1.94522705 -2.19204906
H   4.49656165 -2.11531963 -1.00194815
O  -4.01883494  1.81741676 -0.88077668
H  -4.71857535  1.10354004 -0.90805319
H  -4.45503031  2.70660362 -0.74264983
O   1.06132520 -2.28743782  5.79596063
H   0.79533256 -2.69007912  4.92010233
H   0.41519464 -1.56439724  6.04035207
O   2.39679397  3.58361874 -0.94642428
H   2.34817470  2.64682159 -1.29290274
H   3.33247865  3.92451725 -1.03743246
O  -1.19043338 -4.01860943 -2.15560749
H  -2.11564242 -4.34692278 -1.96534971
H  -1.12441718 -3.74558916 -3.11534813
O  -0.17895972 -3.23952904 -4.73734334
H   0.10901702 -2.57469025 -5.42658809
H  -0.75167548 -3.93787422 -5.16665796
O   4.89114750 -0.54143467  3.23674795
H   4.63086236 -0.33328667  4.17957708
H   4.95982040 -1.53232899  3.12094137
O  -1.95929419  2.94845924  0.45533106
H  -2.70459544  2.35863171  0.14447805
H  -1.21283042  2.92072735 -0.20951775
O   1.88530315 -3.10338440  0.71409151
H   2.56364024 -3.29676714  1.42293712
H   2.32147230 -2.61122169 -0.03925589
O   0.72112144  2.16938839 -5.32656595
H   0.16692937  1.72849522 -6.03260079
H   0.13605274  2.74342213 -4.75369624
O  -0.78891360 -0.59810772  6.58521196
H  -1.05471694  0.34427128  6.38206312
H  -0.77468192 -0.73424568  7.57580015
O  -3.59209716  1.07209454  4.27730104
H  -4.47571456  1.49300728  4.48236677
H  -3.65707099  0.08224258  4.40367815
O  -4.02905547  2.28157101 -3.65329054
H  -3.81134402  1.36335907 -3.98417989
H  -3.86196505  2.32931194 -2.66850546
