78
N16 tacrine microhydration cluster; source_frame=5545; time_ps=5556.090000; n_waters=16; atoms=78; max_selected_waterO_min_distance_A=3.868140; selection=nearest_16_water_oxygens_to_tacrine_heavy_atoms
N   0.70345667 -0.09729528 -1.28275410
N  -1.23855182  0.17833805  2.33795436
C  -3.48964998  0.29029846 -1.53037182
C  -2.85235116  0.49307346 -0.13780801
C  -2.60201475  0.73168135 -2.65425221
C  -1.32897064  0.12653255 -0.11176888
C  -1.28599092  0.03051615 -2.67669217
C  -0.61567661  0.07137728 -1.35355679
C  -0.59188387  0.06802940  1.11800845
C   0.83340100 -0.12745428  1.13757308
C   1.45993784 -0.24816704 -0.13384453
C   1.57836941 -0.30780602  2.32688554
C   2.87201050 -0.33298063 -0.21206967
C   2.94625595 -0.46574640  2.20272477
C   3.61165837 -0.41039705  0.96997197
H  -3.71125719 -0.76153564 -1.71102158
H  -4.39463827  0.89096642 -1.62144105
H  -3.02189323  1.54966307  0.06949313
H  -3.38701030 -0.11124611  0.59502014
H  -3.15372702  0.79203463 -3.59237305
H  -2.44928548  1.77825356 -2.39069764
H  -1.35551330 -0.97221804 -3.09834496
H  -0.65801546  0.55534267 -3.39662568
H   1.18085650 -0.22878027  3.32795461
H   3.24260166 -0.40480757 -1.22395054
H  -0.68738195  0.48584461  3.12646612
H  -2.20595404  0.46691704  2.30704673
H   3.58599881 -0.49025965  3.07251104
H   4.68827751 -0.47943306  0.91970809
H   1.23139408 -0.25184679 -2.12980477
O  -3.44630524  1.67744350  3.09403737
H  -2.96976921  2.41149044  3.57786401
H  -4.16601333  2.06864643  2.52046855
O   2.28758648 -0.34645891 -3.67904011
H   2.87496785  0.25422859 -4.22140328
H   2.03334072 -1.14515734 -4.22442071
O   1.65123442 -2.83705544 -2.25509850
H   2.23946026 -3.56467080 -1.90215985
H   2.21331719 -2.14202976 -2.70343033
O   5.70382145  1.86276865 -0.26838509
H   5.93241623  1.55481625 -1.19191567
H   5.11370781  2.66829777 -0.32214371
O  -2.50653001 -2.94884944  2.04692300
H  -2.89586445 -2.33571744  2.73430045
H  -1.51132175 -2.85141110  2.03879579
O  -0.04605791 -3.27467704  0.17251380
H   0.81670550 -3.50315905 -0.27852456
H  -0.64336082 -2.79803038 -0.47249524
O  -0.50488922  0.63789034  5.65646680
H  -0.90847513  0.96116972  6.51239260
H   0.49223069  0.67094421  5.72472628
O  -5.79110646  2.80331039 -0.96105019
H  -5.28145444  3.50238705 -1.46259514
H  -5.55593076  2.85152721  0.00970538
O   0.82567862  2.80972767  3.70979818
H   1.05339363  3.75689697  3.93566783
H   1.65963581  2.25790405  3.70737632
O  -3.05642339 -2.87771201 -3.50716988
H  -2.10202810 -3.16673279 -3.43235795
H  -3.52259823 -3.03867316 -2.63724343
O  -4.33996972 -1.34056044  3.35154899
H  -5.14336601 -1.82645082  3.00736221
H  -4.49492869 -0.35457516  3.28973897
O  -2.31723234 -1.59348345  5.35729988
H  -2.93529150 -1.36138535  4.60621150
H  -1.72082206 -0.81452751  5.55100664
O  -0.56923553  2.47250366 -5.42419926
H  -0.94185230  2.98361301 -6.19874684
H   0.40672043  2.67038345 -5.33279912
O   5.93881062  1.32350016  3.60652574
H   5.54100254  0.64267445  4.22152599
H   6.90131882  1.10521603  3.44549592
O  -0.24669286 -3.26131558  3.97442134
H  -0.46713039 -2.44674873  4.51097377
H   0.37770155 -3.84410858  4.49450191
O  -1.99280807  0.38631773 -6.46302621
H  -1.29736921  1.02471828 -6.13316361
H  -2.02702209  0.41762877 -7.46195046
