78
N16 tacrine microhydration cluster; source_frame=604; time_ps=605.208000; n_waters=16; atoms=78; max_selected_waterO_min_distance_A=3.625083; selection=nearest_16_water_oxygens_to_tacrine_heavy_atoms
N  -0.64212011 -0.74598153 -1.11752297
N   0.88572051  1.16977946  2.28816245
C  -2.14975618  3.14179770 -0.20438744
C  -1.20709012  2.46120040  0.80761979
C  -3.11408304  2.14461676 -0.89085318
C  -0.59063409  1.12649981  0.39112304
C  -2.31847261  0.98195330 -1.55130555
C  -1.20453428  0.37839095 -0.63755395
C   0.48646285  0.52942626  1.10335944
C   1.10433413 -0.67194875  0.57351659
C   0.51448085 -1.25298723 -0.57245948
C   2.28022410 -1.26161416  1.10852168
C   1.07385279 -2.44997724 -1.20202328
C   2.76195075 -2.49073633  0.51725314
C   2.11966445 -3.06041940 -0.61345030
H  -2.56861375  4.07651393  0.16839193
H  -1.48089097  3.50085704 -0.98656060
H  -0.49542974  3.19730822  1.18149684
H  -1.84389280  2.14050929  1.63208316
H  -3.79266523  1.82846991 -0.09859254
H  -3.58461259  2.73298995 -1.67858388
H  -2.90149568  0.18104998 -2.00599028
H  -1.88117669  1.39813582 -2.45886494
H   2.81596209 -0.84777673  1.95002197
H   0.53019072 -2.99191602 -1.96171691
H   1.70536639  0.90129344  2.81370471
H   0.50025584  2.08257643  2.48391460
H   3.68899848 -2.95987447  0.81202863
H   2.36373545 -4.06244119 -0.93404795
H  -1.00246309 -1.28399690 -1.89263083
O   0.30319335  3.67507235  3.58633445
H   0.06132819  4.40298478  2.94473956
H   1.22722365  3.83163087  3.93512653
O   2.28603293  0.17183177  4.63728927
H   2.20142485 -0.76151307  4.98615764
H   1.86733271  0.80883090  5.28453086
O  -1.77941488 -2.62113317 -3.09811045
H  -1.66088651 -3.61361535 -3.06761791
H  -1.48134492 -2.27705320 -3.98848321
O   3.55629088  2.07434813  0.92165826
H   3.52723624  3.01439921  0.58186363
H   4.14994075  1.52542655  0.33321641
O   0.63891913 -5.73359521 -1.85388018
H  -0.29344343 -5.95444997 -2.14010216
H   1.27598597 -5.95827897 -2.59121539
O   3.94405009 -5.29496606  2.00367759
H   4.51653315 -5.99580320  1.57813094
H   3.47222258 -5.68493589  2.79443763
O  -5.14094327  0.38299052 -3.40694787
H  -4.87813447 -0.42448076 -2.87881734
H  -5.97253059  0.77948825 -3.01803710
O  -4.28267358 -1.86875280 -2.10450293
H  -3.37267850 -2.13417657 -2.42302920
H  -4.37709497 -2.09900792 -1.13596417
O   4.77161624 -0.89704259 -1.90234830
H   5.04039599 -0.18349298 -1.25535132
H   4.30445410 -0.48085531 -2.68244292
O  -4.14117502  2.69525115 -4.24360658
H  -3.14531587  2.72195880 -4.15671350
H  -4.49248527  1.87084166 -3.79983880
O   5.34643675 -3.59304555 -2.01696898
H   5.06151511 -2.65074857 -1.84119631
H   4.58439948 -4.10266908 -2.41644837
O  -0.65931581  5.73116748  2.13920139
H  -1.23272489  5.47693555  1.36037658
H  -0.52295850  6.72181861  2.14339851
O   3.43001391 -4.99074395 -3.33504631
H   2.81440283 -4.81202062 -4.10256292
H   3.34459712 -5.94689592 -3.05490901
O  -1.36284898  1.87709490 -4.88873269
H  -0.67269967  2.56770674 -4.67251517
H  -1.36211656  1.70197169 -5.87327887
O  -0.41902326 -5.02277215  1.02025102
H   0.39417578 -4.92515119  0.44651197
H  -1.02111028 -4.23646959  0.88160966
O  -1.79594587 -1.33276304  3.21619914
H  -0.87100862 -1.11047967  3.52455066
H  -2.44450448 -0.68258794  3.61198066
