78
N16 tacrine microhydration cluster; source_frame=2318; time_ps=2322.636000; n_waters=16; atoms=78; max_selected_waterO_min_distance_A=3.882995; selection=nearest_16_water_oxygens_to_tacrine_heavy_atoms
N  -1.30517635  0.43337447  0.13548710
N   2.53849330 -0.81664747 -0.28222369
C   0.65784302  1.90542800 -3.15930317
C   1.60528531  1.34425170 -2.02892969
C  -0.42324696  2.82574183 -2.50187085
C   0.76339140  0.71228129 -0.89483832
C  -1.33804379  2.04806048 -1.56117438
C  -0.52526245  1.13255221 -0.70910595
C   1.26005783 -0.30949872 -0.07101630
C   0.40298023 -0.94613164  0.90423109
C  -0.93105421 -0.53919881  1.00984861
C   0.76975193 -2.01145643  1.83145763
C  -1.90061293 -1.12224000  1.85143902
C  -0.11272154 -2.55205911  2.74316551
C  -1.46168480 -2.10445779  2.73283340
H   1.30369749  2.49458987 -3.81034849
H   0.20263424  1.11243827 -3.75264333
H   2.38940492  0.70505625 -2.43474458
H   2.16784921  2.21978385 -1.70479248
H   0.03728952  3.68036086 -2.00625847
H  -1.12219343  3.23421961 -3.23174713
H  -1.76768646  2.79605681 -0.89483498
H  -2.12993202  1.50998408 -2.08221815
H   1.72663155 -2.50565046  1.91242077
H  -2.89593515 -0.70980924  1.92649986
H   3.03093233 -0.42341607 -1.07150935
H   2.69398489 -1.78606790 -0.04527043
H   0.18072691 -3.35747808  3.40011932
H  -2.25689945 -2.49615281  3.34976818
H  -2.24221144  0.77001197  0.30501606
O   3.17583814  0.54226786  2.22024109
H   4.13153293  0.82553584  2.30028202
H   3.03489509  0.08995158  1.33959057
O  -4.14377508  1.03397566 -0.28113602
H  -4.16246901  0.03508002 -0.23803852
H  -4.74635611  1.40932089  0.42314531
O  -4.08991728 -1.61478990 -0.32009648
H  -4.71140871 -2.37971490 -0.15086745
H  -3.19549189 -1.96678441 -0.59596346
O   2.04447951 -3.93949455 -0.73421810
H   1.89483752 -4.92270559 -0.62979697
H   1.23941078 -3.52279704 -1.15638779
O  -2.82177744 -4.82376664  1.53126957
H  -2.65018091 -5.63035720  0.96561338
H  -2.67289267 -5.05337804  2.49309684
O   5.76076823  0.02434737 -1.02000712
H   6.37099248 -0.49346631 -1.61958598
H   5.64147680 -0.46972459 -0.15880917
O   1.13929882 -3.10552591  5.86895420
H   1.02090540 -2.22543805  6.32876732
H   1.96536984 -3.07901042  5.30601360
O  -1.92076359 -0.37521451  5.63893463
H  -2.42462645  0.44402415  5.91274120
H  -0.96101341 -0.14032739  5.48496010
O   4.52350196  2.20574099 -0.47199677
H   5.03754314  1.40147978 -0.77020167
H   4.89071035  3.02094275 -0.91988419
O  -2.16234074  3.28565222 -5.50323550
H  -1.84134541  3.94625479 -6.18188582
H  -1.61913738  2.44869811 -5.56986020
O  -4.70006952  2.83407504 -2.19966744
H  -4.31152925  2.23326213 -1.50105332
H  -5.52156839  3.27623851 -1.83962677
O   1.82745900  1.32228476 -6.44641891
H   1.71275630  0.60126979 -7.12977847
H   0.98027554  1.42535597 -5.92521199
O   3.18131390 -2.90180486  4.27409603
H   3.70799830 -3.66099685  3.89169361
H   3.78607979 -2.12020772  4.42694999
O  -2.04651699 -3.36908048 -1.02042816
H  -1.42881021 -3.67521566 -1.74480341
H  -1.87969027 -3.90381521 -0.19203947
O   0.01793709 -2.72712415 -2.63965939
H  -0.52844534 -2.20314782 -3.29304694
H   0.83774700 -3.07529443 -3.09428976
O  -1.34785519  0.44193465 -6.14477061
H  -1.80742178  0.29866130 -7.02128135
H  -1.52860079 -0.33571618 -5.54261629
