78
N16 tacrine microhydration cluster; source_frame=7561; time_ps=7576.122000; n_waters=16; atoms=78; max_selected_waterO_min_distance_A=3.624646; selection=nearest_16_water_oxygens_to_tacrine_heavy_atoms
N   0.21915143  1.15619383 -0.86959308
N  -0.56369025 -2.08687201  1.51720864
C  -1.88235385  1.85421476  2.68349225
C  -1.16451556  0.48672304  2.58704287
C  -0.94589812  2.94760761  2.20963318
C  -0.56334693  0.22548304  1.19268591
C  -0.68288905  2.79027853  0.69542987
C  -0.32470805  1.33123217  0.36539299
C  -0.27948863 -1.03702822  0.69456298
C   0.35090631 -1.22431555 -0.58204069
C   0.61797708 -0.04327288 -1.35241830
C   0.75834840 -2.46457376 -1.11586743
C   1.23432439 -0.10089197 -2.60836356
C   1.47153180 -2.49886122 -2.35246962
C   1.75465101 -1.33591738 -3.06469601
H  -2.85283763  1.97539244  2.20226843
H  -2.02344901  1.96651659  3.75847155
H  -0.41740519  0.25488958  3.34610755
H  -1.84424407 -0.33627310  2.80783040
H  -1.46769435  3.87813816  2.43310720
H  -0.07276065  2.90374146  2.86063773
H  -1.64813716  3.06102715  0.26753814
H   0.04670804  3.53051195  0.36703498
H   0.55223459 -3.32698526 -0.49929305
H   1.41386979  0.83809767 -3.11082070
H  -0.47798735 -3.03649416  1.18408257
H  -1.22242552 -1.77619066  2.21695477
H   1.74747556 -3.46433058 -2.75011700
H   2.33928912 -1.36260309 -3.97237795
H   0.43112748  2.02361879 -1.34154623
O  -1.35109049  0.11868486  5.54331017
H  -1.31487757  0.84929094  6.22514868
H  -0.99246318 -0.72604742  5.94056798
O   1.24989217  3.49555788 -2.52316236
H   1.44583886  4.08059225 -3.31014394
H   2.07885831  3.38595257 -1.97470819
O  -3.40223223 -2.96479597  2.66867138
H  -4.32911116 -3.25508776  2.90663171
H  -2.74037940 -3.49747171  3.19612504
O  -3.14595229 -0.49196234 -0.63755568
H  -3.03533084  0.25796328 -1.28976246
H  -2.75761515 -1.32897272 -1.02305424
O   0.38721460  5.29064856  4.03022910
H  -0.50015742  5.70390711  3.82580901
H   0.83274930  5.80369387  4.76390696
O   4.75107425 -2.75665941 -3.32312893
H   5.00727075 -2.09260454 -2.62070798
H   5.28747981 -2.59033194 -4.15053701
O   2.48964303 -0.50112619  2.46689463
H   1.66229432 -1.04185858  2.31489969
H   2.27340740  0.28239164  3.04942537
O  -4.36761099 -0.11946955  1.65024579
H  -3.97532183 -0.23479357  0.73766196
H  -4.24206645 -0.96092119  2.17578984
O   3.23796504 -4.87120237 -0.70221683
H   4.14731448 -5.24765482 -0.87932711
H   3.32646697 -3.99421301 -0.22992876
O  -4.34939105  4.22008524  2.62530900
H  -4.30003077  5.07569084  2.11003924
H  -4.53172404  3.46313200  1.99779273
O  -1.03678996 -4.54233828  3.87205744
H  -1.25648791 -5.49996653  3.68583012
H  -1.46444327 -4.26337137  4.73187733
O   0.77521604 -5.96779623 -0.59695139
H   1.63668054 -5.46961107 -0.49851037
H   0.95557111 -6.95131006 -0.58384899
O   2.82262081  3.40156803  0.52459622
H   3.26350206  2.51689539  0.67618394
H   2.56937593  3.80294857  1.40480090
O  -4.09030158  3.32003746  5.07598591
H  -4.97249514  3.65127811  5.41067267
H  -3.98730761  3.56273947  4.11136771
O   3.94106906 -2.31734457  0.54953075
H   4.72970718 -2.53938284  1.12289727
H   3.48883575 -1.50008955  0.90671325
O   3.17851251 -4.19890490 -5.06062889
H   3.80244869 -3.59144678 -4.56900024
H   3.70495790 -4.80957499 -5.65218305
