78
N16 tacrine microhydration cluster; source_frame=1512; time_ps=1515.024000; n_waters=16; atoms=78; max_selected_waterO_min_distance_A=3.723762; selection=nearest_16_water_oxygens_to_tacrine_heavy_atoms
N   0.55572281  1.06036097  0.82726623
N  -0.87207928 -2.06653016 -1.41768502
C  -3.53682556  0.34851891  1.18960048
C  -2.67457237 -0.85705012  0.57333328
C  -2.92019405  0.88820321  2.47167684
C  -1.22527542 -0.45189684  0.30198552
C  -1.49926796  1.45598132  2.06707002
C  -0.73386326  0.62874586  1.06301166
C  -0.36965885 -1.02897471 -0.64477371
C   0.93294487 -0.52694481 -0.85795353
C   1.38711510  0.59484750 -0.15548609
C   1.78044853 -1.06347912 -1.82135390
C   2.62550888  1.10123498 -0.34725784
C   3.06422482 -0.55887431 -2.00490259
C   3.48577175  0.47585732 -1.24453138
H  -3.66926708  1.09081179  0.40247871
H  -4.51580181 -0.02988809  1.48373319
H  -2.74734440 -1.64251178  1.32556631
H  -3.23470058 -1.34837478 -0.22225188
H  -3.45125713  1.67126090  3.01287319
H  -2.76899185  0.04091651  3.14051344
H  -1.59755554  2.47900969  1.70395471
H  -0.91706123  1.64148480  2.96968986
H   1.61791286 -2.01363319 -2.30837439
H   2.91143284  2.02071244  0.14183141
H  -0.27522316 -2.54259127 -2.07891749
H  -1.81486454 -2.40465968 -1.28759263
H   3.64229259 -0.94450134 -2.83166073
H   4.53704367  0.67711598 -1.38848446
H   0.99892673  1.81043917  1.33820011
O   1.15379009  3.69080407  1.86224987
H   1.28807030  4.68174702  1.86124612
H   1.06582127  3.36731965  2.80438568
O   0.36197052 -4.21491032 -3.02849887
H   1.15157566 -3.85551071 -3.52584760
H   0.67483006 -4.83956855 -2.31301211
O   3.61697016  0.72263152 -4.81311820
H   4.59445868  0.69356352 -5.02209256
H   3.45826159  1.34560544 -4.04714470
O   0.48131332  0.31965214 -4.35186706
H   0.16569195  1.04626090 -4.96213172
H   1.40747795  0.52751238 -4.03720198
O   2.55623779 -1.42527753  2.09274818
H   3.45129118 -1.79282790  1.84018709
H   2.67494831 -0.54500001  2.55211689
O   2.41936550  1.01174933  3.57867862
H   3.41006193  1.12887055  3.50938036
H   2.04607258  1.69485242  4.20639087
O   2.77992401 -3.62697464 -3.81244431
H   3.01464615 -3.08699935 -4.62073396
H   3.57204399 -3.67813560 -3.20422719
O  -3.11396637 -0.36859220  5.63240530
H  -2.57256355 -1.06011074  5.15419580
H  -4.07470837 -0.45688432  5.36938383
O  -2.99340191  4.14982754  3.63252212
H  -2.49345722  3.98448807  4.48265030
H  -2.44207611  4.72486312  3.02806045
O   3.70143566  3.24295098 -3.38279615
H   3.88028345  3.85446030 -4.15355532
H   4.22143278  3.55030114 -2.58584003
O  -2.19044914 -1.23897093 -4.56380950
H  -1.50845375 -1.09269875 -3.84722935
H  -2.17632713 -0.46746677 -5.19987701
O  -1.09163036  3.91865927 -0.46627234
H  -0.17769470  3.58127982 -0.24066995
H  -1.48155155  3.36055667 -1.19872211
O  -1.85055294 -2.56054765  3.65638258
H  -2.17398014 -3.15669274  4.39123346
H  -1.01156178 -2.09978824  3.94585516
O   5.11076174  2.77729136  1.77891685
H   5.71158609  3.49257905  1.42202188
H   4.51160583  3.16429288  2.47980358
O  -4.09760609 -4.05756419 -0.59634803
H  -4.79787769 -4.76539069 -0.68908809
H  -3.54239883 -4.24220150  0.21461059
O  -0.56734314  1.23634822  5.66563608
H  -0.30928364  0.35372359  5.27272417
H  -1.52624073  1.42713029  5.45559408
