78
N16 tacrine microhydration cluster; source_frame=3629; time_ps=3636.258000; n_waters=16; atoms=78; max_selected_waterO_min_distance_A=3.622849; selection=nearest_16_water_oxygens_to_tacrine_heavy_atoms
N   0.37175897  0.37059085 -1.32137321
N  -0.66007563 -0.86785730  2.45906998
C   0.30083421 -3.73210367 -0.67574476
C   0.20596460 -2.81990369  0.62373974
C   1.32717756 -3.14713891 -1.64553665
C  -0.00871512 -1.36007055  0.24904515
C   0.82507089 -1.79223092 -2.20464681
C   0.37333062 -0.95065912 -1.04186176
C  -0.38251063 -0.36521753  1.19143225
C  -0.40839240  1.07474009  0.84796669
C   0.05171159  1.41430442 -0.44285415
C  -0.90359351  2.14274184  1.69200327
C   0.06959394  2.78678004 -0.92120908
C  -0.77934119  3.45359294  1.23799326
C  -0.38281390  3.79243151 -0.04802392
H   0.58879522 -4.74874338 -0.40811990
H  -0.68740985 -3.74917444 -1.13528989
H  -0.54541346 -3.17906221  1.32697226
H   1.12835267 -2.86454042  1.20279767
H   2.35902360 -3.03747686 -1.31181978
H   1.32019666 -3.85730012 -2.47241186
H   1.59273580 -1.20200475 -2.70507167
H   0.04732374 -1.94843705 -2.95218252
H  -1.23386332  1.91675440  2.69512440
H   0.40971616  2.95511977 -1.93233655
H  -0.46309420 -1.85000070  2.58826615
H  -0.86617324 -0.24142488  3.22405793
H  -0.98638388  4.29957835  1.87661864
H  -0.36070487  4.82283656 -0.37078546
H   0.66272310  0.66899459 -2.24137042
O  -0.08475348 -2.68469556  4.52454026
H   0.59155324 -3.40500863  4.37040533
H   0.34243158 -1.92617544  5.01663770
O   1.19270185  1.33483092 -3.90902065
H   0.97027639  1.54275672 -4.86154006
H   2.18551305  1.27910105 -3.80309223
O  -1.35258052  0.71507517  5.03862192
H  -0.42344615  0.37082259  5.17352446
H  -1.98999354  0.18031279  5.59335913
O  -3.22636935 -0.46711000 -0.25061820
H  -2.98596522 -1.07015260 -1.01124023
H  -3.35374304 -1.01118596  0.57869364
O   3.55127385 -0.00631841 -1.49252246
H   4.14661792 -0.25762018 -2.25568221
H   3.97882560  0.72682158 -0.96365045
O   1.38038209 -0.09760602  4.86925258
H   1.83558753  0.16419951  5.72027923
H   1.97923807  0.10586802  4.09467520
O   4.19683746 -4.14781411 -0.07396673
H   4.08615449 -3.19939168  0.22309281
H   3.88950733 -4.76261838  0.65236952
O  -2.91579863 -2.74519189  4.22847307
H  -1.92618701 -2.87066205  4.15828930
H  -3.29734847 -2.58848794  3.31750476
O  -4.22645232  1.40345542  2.13113548
H  -3.85799071  0.92522589  1.33393289
H  -4.97608706  0.86994139  2.52281107
O  -2.21855303  4.24945132 -3.10129951
H  -2.92016741  3.87626712 -2.49428151
H  -1.77476260  5.02853076 -2.65848420
O   3.48741630 -1.51399644  0.82835938
H   2.52520374 -1.78621896  0.83484747
H   3.64019016 -0.84696420  0.09916283
O   2.86690286  4.02218215  1.37800600
H   1.95733741  4.32474105  1.09313847
H   3.40760473  4.81384150  1.66246440
O  -3.79325530 -2.35418924  1.51662804
H  -3.53547331 -3.23366769  1.11654712
H  -4.78769442 -2.31020768  1.61231543
O   0.39070085  4.15786807 -4.23588298
H   0.57640603  3.60115687 -5.04556487
H  -0.56892821  4.05547110 -3.97391532
O   2.66428331  1.35834090  2.74536266
H   2.43110040  2.08033530  2.09394099
H   3.19615987  0.64989821  2.28144910
O   0.86231855  7.08318583  0.81546714
H   0.67555192  8.06550280  0.82855655
H   1.09595254  6.77600066  1.73799230
