78
N16 tacrine microhydration cluster; source_frame=403; time_ps=403.806000; n_waters=16; atoms=78; max_selected_waterO_min_distance_A=3.740345; selection=nearest_16_water_oxygens_to_tacrine_heavy_atoms
N  -0.76768093 -1.24316352 -0.37443282
N   1.28411121  2.17713458  0.61145662
C   1.12008352  1.12509257 -3.45229270
C   0.62532587  1.82648570 -2.14848544
C  -0.05110722  0.23987586 -3.88798262
C   0.25987024  0.81191975 -0.97660758
C  -0.39056234 -0.83074325 -2.81672789
C  -0.28506498 -0.42494672 -1.31709792
C   0.59384079  1.03484303  0.34773420
C   0.08841915  0.16216761  1.37997316
C  -0.62079268 -1.02761834  0.98687909
C   0.24998589  0.37940509  2.77759050
C  -1.03814821 -2.00254196  1.91677354
C  -0.23041658 -0.52740424  3.69059108
C  -0.83786373 -1.70050615  3.26262878
H   1.28471870  1.76498896 -4.31919982
H   2.07396669  0.61293608 -3.32618739
H   1.48572941  2.43583495 -1.87190081
H  -0.16271429  2.56193740 -2.31035830
H  -0.95621758  0.80678565 -4.10590388
H   0.10305519 -0.27155059 -4.83812834
H  -1.38086872 -1.25584691 -2.98007132
H   0.37156553 -1.60068220 -2.93695761
H   0.85860510  1.22395236  3.06520627
H  -1.52806454 -2.88277238  1.52744459
H   1.56091900  2.47285849  1.53667234
H   1.85400743  2.58313758 -0.11688449
H  -0.01261501 -0.41373294  4.74227594
H  -1.08382111 -2.48912042  3.95832418
H  -1.13283281 -2.13349670 -0.68114211
O   2.61925573  2.96741015  3.01528619
H   3.06518621  2.25738913  3.56027816
H   1.99697657  3.49199683  3.59630035
O  -2.13897495 -3.77350634 -1.27256037
H  -2.91738658 -4.00102180 -0.68748595
H  -2.47024350 -3.48655027 -2.17140223
O  -3.52102427  0.14155156  1.20400594
H  -4.22729616 -0.05749172  0.52462171
H  -3.04034524  0.98058039  0.94909833
O  -1.89750319  1.96751410  4.96387075
H  -1.69225006  2.10583502  5.93275569
H  -2.32309895  1.07140547  4.83794473
O   1.80431910 -3.19446462 -1.02800681
H   1.15198154 -3.73802059 -0.49979998
H   2.32937975 -3.79622715 -1.62983252
O   4.01881666  0.85408026 -1.87858512
H   3.88725348  1.83608729 -1.74310900
H   4.66052790  0.70440537 -2.63078429
O  -2.28517895  2.32682234 -5.50773360
H  -1.79518108  2.55785281 -6.34828545
H  -3.26969819  2.40908915 -5.66250540
O  -3.74247603 -2.71705907  4.84634279
H  -3.69552450 -1.72218269  4.75680660
H  -2.91153436 -3.05127352  5.29113172
O  -1.27769833 -3.81175893  6.01693128
H  -0.96913605 -4.09279698  6.92567037
H  -1.22074585 -4.58908051  5.39041112
O  -0.79972200  4.92370803 -1.29975249
H  -1.31003551  5.01165778 -0.44427325
H  -1.43881445  4.78595359 -2.05644442
O  -0.98611431  4.83706671  1.42042898
H  -1.39722757  4.52209193  2.27586912
H  -0.51536589  5.70537669  1.57673810
O  -2.67708282  2.52362639  0.35451864
H  -1.75585823  2.90724570  0.41918443
H  -3.28548698  3.01008326  0.98157857
O   4.04015036  4.55425555  1.25020002
H   3.43449183  3.92583377  1.73832296
H   4.91688223  4.10541255  1.07734083
O   1.28376598  0.32194764 -7.33330228
H   2.03209658 -0.19297212 -6.91514136
H   0.61523409 -0.31459897 -7.71784522
O  -3.29479508 -3.03485626 -3.47883917
H  -2.73548226 -3.33985585 -4.24964739
H  -3.72708588 -2.16206115 -3.70545222
O   3.14218397 -2.00885528 -3.73453643
H   3.72987528 -1.42537444 -3.17402865
H   3.06844397 -2.91204446 -3.31167533
