78
N16 tacrine microhydration cluster; source_frame=7359; time_ps=7373.718000; n_waters=16; atoms=78; max_selected_waterO_min_distance_A=3.692402; selection=nearest_16_water_oxygens_to_tacrine_heavy_atoms
N  -0.53992862 -0.59605071  1.19126984
N   1.04867035  0.78770164 -2.32572654
C  -3.22837109 -0.36874720 -2.07739356
C  -1.76775307  0.21668819 -2.20914939
C  -3.79365391 -0.33716866 -0.59810117
C  -0.79806620  0.06622604 -1.04915431
C  -2.77006001 -0.83864352  0.42526385
C  -1.35313887 -0.38530919  0.13563868
C   0.55962377  0.32492307 -1.08622936
C   1.35872775  0.19254640  0.04394480
C   0.78565508 -0.19332835  1.28414723
C   2.73262435  0.64475540  0.08884570
C   1.48054748 -0.30910298  2.45629450
C   3.46637898  0.64421132  1.26476618
C   2.81874400  0.15129855  2.45558354
H  -3.86997575  0.19762185 -2.75242713
H  -3.32477278 -1.40176341 -2.41158584
H  -1.31328994 -0.24733159 -3.08450607
H  -1.85408181  1.25086883 -2.54249385
H  -4.02411002  0.69063238 -0.31771758
H  -4.74236602 -0.87227294 -0.63944724
H  -3.15144343 -0.46185824  1.37430569
H  -2.77629251 -1.92647978  0.49362799
H   3.21516305  1.00042489 -0.80951694
H   0.92424398 -0.56491563  3.34594986
H   1.75824767  1.50606731 -2.30225852
H   0.60336309  0.60248283 -3.21313575
H   4.51044923  0.91390422  1.32462403
H   3.37827617  0.22564700  3.37634203
H  -0.93240160 -1.09133860  1.97914979
O  -1.58163703 -2.44909808  3.05076739
H  -2.19243372 -2.34147116  3.83520576
H  -1.93469873 -3.16572520  2.44927451
O   0.80647331  0.09181503 -5.09613136
H   0.31963807 -0.45163104 -5.77998641
H   1.46393662  0.69102577 -5.55295566
O  -5.92796678 -1.18447062 -3.17569927
H  -5.57066840 -2.10493514 -3.33407119
H  -6.56425256 -1.20204398 -2.40444568
O   3.47603732  2.62642244 -2.99102405
H   3.40083342  3.31347922 -3.71372608
H   3.93199998  1.81249431 -3.35105041
O   4.78770715  3.53664068  0.73912999
H   4.91472131  4.38810423  1.24792954
H   4.14027291  3.68808988 -0.00779155
O  -1.81223587  1.94036535  2.75987622
H  -2.16170264  1.62963727  3.64379999
H  -2.57666436  2.21923545  2.17860171
O   2.42591649 -2.98774382  0.53060576
H   2.74951487 -2.17431399  1.01394459
H   2.32736235 -2.78001925 -0.44260457
O   5.65186911  0.47088340  4.35295173
H   5.72718411  1.36592964  3.91338321
H   6.26481658 -0.17594477  3.89917943
O   2.21346837  3.46691707  3.07584092
H   3.21336156  3.46788266  3.06125876
H   1.89371663  3.22596911  3.99219391
O  -3.35794765 -1.79457137 -5.26004318
H  -3.87581712 -2.44015738 -4.69876769
H  -2.41454459 -2.11365649 -5.35046295
O   2.41630917 -1.77571723  5.55020389
H   1.47276264 -1.44700572  5.59105214
H   3.04174739 -1.01714179  5.73293504
O  -3.81521649  2.87576679  0.91145369
H  -4.05920607  3.29216340  1.78728625
H  -4.62526316  2.45110229  0.50712153
O  -0.14128536 -4.07554766  0.50977132
H   0.75989323 -3.73020121  0.77171275
H  -0.17481631 -5.06421229  0.65612504
O  -0.18001777 -0.91492984  5.58863351
H  -0.74160999 -1.70471713  5.83531067
H  -0.48620111 -0.11431786  6.10367963
O   0.38634830 -2.72937915 -3.18572810
H  -0.11975545 -2.88560721 -2.33752349
H   1.32641726 -2.46592566 -2.96925071
O  -3.10998178  3.63295105 -1.80740264
H  -2.60550791  3.30736688 -1.00771430
H  -3.96837551  4.05232242 -1.51195720
