78
N16 tacrine microhydration cluster; source_frame=7763; time_ps=7778.526000; n_waters=16; atoms=78; max_selected_waterO_min_distance_A=3.717378; selection=nearest_16_water_oxygens_to_tacrine_heavy_atoms
N  -1.21605780  0.47951241  0.56234290
N   2.20617912 -1.03721743 -1.08897041
C   2.25959060  0.98376722  2.83263232
C   2.23059032 -0.06176548  1.74623896
C   0.97714231  0.91665382  3.68833472
C   1.03792951  0.01379747  0.82718970
C  -0.30535545  0.97318478  2.78085257
C  -0.14535704  0.47116966  1.32971503
C   1.10248992 -0.49570208 -0.49624799
C  -0.09699097 -0.43784313 -1.29746841
C  -1.27700069  0.13062687 -0.76496909
C  -0.22138109 -0.91343622 -2.63200401
C  -2.52295771  0.15409679 -1.44173263
C  -1.41814187 -0.82560949 -3.31581424
C  -2.61067917 -0.35123520 -2.73009942
H   3.15890930  0.89423676  3.44198348
H   2.18750665  1.99418850  2.43019702
H   3.13403461  0.03963490  1.14490153
H   2.36147401 -1.03999023  2.20888926
H   0.96899793 -0.10235291  4.07519271
H   0.93407056  1.71479244  4.42942835
H  -0.98208537  0.28447647  3.28663565
H  -0.68893757  1.99341793  2.77137877
H   0.58156810 -1.35114555 -3.20653270
H  -3.38455465  0.43617458 -0.85480617
H   2.07318065 -0.93348150 -2.08478711
H   3.15335557 -0.97560434 -0.74377368
H  -1.54428902 -1.12188988 -4.34669040
H  -3.51898935 -0.33484917 -3.31414054
H  -2.06460490  0.87307997  0.94335868
O   4.96525702 -0.47777920 -0.53165410
H   4.82903800 -0.08610754 -1.44161962
H   5.45419869  0.17791576  0.04367186
O  -3.67704906  1.25335426  2.08733107
H  -4.25062337  0.59450455  2.57408549
H  -4.25417640  1.96262426  1.68253447
O  -5.08855786 -1.95751696 -1.30047439
H  -5.88325849 -2.53976946 -1.12891363
H  -5.38205090 -1.00380878 -1.36606906
O  -5.79051390  0.62929077 -1.70050357
H  -5.70961990  1.38640232 -2.34876178
H  -6.62718620  0.73805971 -1.16370891
O   3.99925504 -2.03560786  4.01374747
H   4.18035541 -1.61111073  4.90088011
H   3.44595609 -2.85824637  4.14461543
O   1.85773215 -3.44141130 -3.97543071
H   2.77120719 -3.62197976 -3.61079620
H   1.89487729 -2.65646391 -4.59387873
O   4.28658900  1.10399504 -3.03656314
H   4.90384421  1.78487701 -2.64235948
H   3.39262805  1.52055950 -3.20181344
O   1.01915369  3.74183531  0.47615935
H   1.96445260  3.97673578  0.70250441
H   0.97002110  3.43714018 -0.47502206
O  -5.24642363  1.22127600 -4.63184450
H  -4.92553988  1.94466181 -4.02049611
H  -6.15596094  1.45462818 -4.97577523
O   1.13887987 -4.48420720 -1.49189828
H   2.12399945 -4.65213965 -1.45532440
H   0.95321259 -3.72420602 -2.11473535
O   5.49081788  1.24236603  4.57463862
H   5.29589591  1.46923513  3.62041880
H   6.24140153  0.58275146  4.61379363
O  -1.20030918 -2.87361007  2.47873141
H  -0.50490298 -3.38272529  1.97157122
H  -2.06713226 -2.90735965  1.98125960
O   1.85549817  1.70489807 -4.21900342
H   2.43132577  2.34282608 -4.73034595
H   1.34359059  1.13164444 -4.85879372
O   3.33073888  1.16023846  6.53855826
H   3.87824807  0.81772680  5.77506568
H   3.01462636  2.08641071  6.33294226
O   2.09405885  3.59377451  5.99721266
H   2.95020423  3.98824091  6.33099581
H   1.74530015  4.14630480  5.24019362
O   0.63904176  3.11522646 -2.10546134
H  -0.31382551  3.34029360 -2.30890344
H   1.05554471  2.67741175 -2.90223192
