78
N16 tacrine microhydration cluster; source_frame=2520; time_ps=2525.040000; n_waters=16; atoms=78; max_selected_waterO_min_distance_A=3.824038; selection=nearest_16_water_oxygens_to_tacrine_heavy_atoms
N   0.31197942 -1.05531413  0.98912447
N  -0.61150431  1.85037988 -1.85986025
C   3.13391126 -0.43583876 -1.93434078
C   2.12330259  0.72921842 -1.67238743
C   3.69235576 -0.87787158 -0.55309755
C   1.01347537  0.25269502 -0.82912285
C   2.56597532 -1.51093394  0.17308968
C   1.25313980 -0.74413687  0.14953822
C  -0.32169711  0.88133806 -0.87119562
C  -1.23040306  0.59667486  0.10586232
C  -0.92644524 -0.48177630  0.99694818
C  -2.51678168  1.19670289  0.21283286
C  -1.91519534 -0.87937648  1.98160952
C  -3.45763265  0.74389737  1.10513371
C  -3.11448013 -0.26565844  2.00586551
H   2.65920556 -1.26100451 -2.46524173
H   3.93794645 -0.07038886 -2.57314760
H   2.54919566  1.64281267 -1.25758392
H   1.75791157  1.06791585 -2.64185793
H   4.43100847 -1.67770392 -0.60562641
H   4.26969255 -0.01979834 -0.20887071
H   2.37934626 -2.46447379 -0.32090408
H   2.81745494 -1.70998103  1.21483749
H  -2.72925007  2.12646383 -0.29392320
H  -1.76373755 -1.72907073  2.63082391
H  -0.39511072  1.59850019 -2.81371051
H  -1.39058851  2.48036092 -1.73237926
H  -4.36306369  1.32965368  1.16417116
H  -3.79149901 -0.52397353  2.80668932
H   0.40415181 -1.79381091  1.67193240
O   0.83292896 -3.02734572  2.67184847
H   1.35462136 -3.81789786  2.35112363
H   0.46969552 -3.21561629  3.58432644
O  -2.25914984  4.12687534 -1.63401109
H  -3.23491090  4.32025569 -1.73645384
H  -1.96776109  4.36443609 -0.70737344
O  -5.26618808 -1.15343291 -0.45224601
H  -4.34321134 -1.31698710 -0.80061943
H  -5.72049802 -2.02901370 -0.28805191
O   0.31540246  1.73631090 -4.77811271
H   1.10845990  1.17803567 -5.02180988
H   0.45324249  2.67152780 -5.10425598
O   1.44509394  4.12189525 -1.37272770
H   1.82922942  3.55547517 -0.64361269
H   0.55772287  3.75283330 -1.64907152
O  -3.89412325  0.12737649  5.02223831
H  -3.41466778  0.97263044  5.25817841
H  -4.69844716  0.34375184  4.46884417
O   3.28728325  0.55065339  2.64354866
H   3.44080550 -0.37095648  3.00001150
H   3.48630530  1.22170919  3.35774397
O  -2.08522706 -1.95170886 -1.85148651
H  -1.36908119 -2.63895518 -1.97325069
H  -2.98133462 -2.39404971 -1.88788921
O  -0.13698774 -0.17523772  4.72125065
H  -0.38803732 -1.13976199  4.80290132
H   0.45413465  0.08121293  5.48597782
O   5.78833825  0.36716932  1.73467630
H   4.90157468  0.77183431  1.95805114
H   5.75613648 -0.61849505  1.90029686
O   2.20546848  2.83879178  1.12994235
H   2.45291073  1.87064927  1.09158080
H   2.94703633  3.35565894  1.55764073
O  -6.10610288  0.82761281  3.54224908
H  -6.31432431  1.38894361  2.74128025
H  -6.63178819 -0.02199752  3.49962526
O   3.37435181  0.57110113 -5.31781418
H   3.31344111  0.46194261 -6.30997116
H   3.06144268 -0.26673896 -4.87047512
O   5.61503369 -1.81739432 -4.05938560
H   6.03693301 -1.01598841 -4.48335296
H   4.73946244 -2.00734526 -4.50356323
O  -2.74374478  1.72372430 -4.76768619
H  -2.98983353  2.49229902 -5.35822326
H  -1.74832278  1.63393205 -4.73493892
O   3.19483406 -2.36665541 -5.23456890
H   2.51737816 -2.91422373 -4.74342472
H   3.34914882 -2.76130492 -6.14034969
