78
N16 tacrine microhydration cluster; source_frame=705; time_ps=706.410000; n_waters=16; atoms=78; max_selected_waterO_min_distance_A=3.626540; selection=nearest_16_water_oxygens_to_tacrine_heavy_atoms
N  -0.89711793  0.65437743 -1.00160847
N   1.66831843 -1.27152303  1.59548845
C  -2.56884225 -2.43042997  1.44246998
C  -1.04291662 -2.27168516  1.38979187
C  -3.25610669 -2.21958783  0.00295630
C  -0.54256185 -1.07241872  0.58297911
C  -2.81021055 -0.86565641 -0.66925535
C  -1.35894044 -0.41884855 -0.36239967
C   0.76915518 -0.54921201  0.81604471
C   1.27985160  0.67971083  0.21162930
C   0.40818373  1.17945716 -0.78013763
C   2.60930316  1.29130980  0.33338490
C   0.80579726  2.19825122 -1.62440166
C   2.89818064  2.35889384 -0.44069014
C   2.03790633  2.73736140 -1.49625168
H  -2.76779683 -3.39727262  1.90478697
H  -2.94577916 -1.70369581  2.16210499
H  -0.62775644 -2.38659147  2.39106026
H  -0.74313577 -3.09274152  0.73856344
H  -2.88527330 -3.02637151 -0.62924967
H  -4.34513601 -2.20492223 -0.04064188
H  -3.13524946 -0.92914060 -1.70772514
H  -3.35944875  0.00740668 -0.31683550
H   3.32359807  0.89845702  1.04179850
H   0.16360919  2.50977656 -2.43492422
H   2.64187400 -1.27958158  1.32674160
H   1.34555213 -2.18511442  1.88056984
H   3.72124116  3.04786250 -0.32111988
H   2.29202716  3.58794352 -2.11133871
H  -1.45904191  1.07428977 -1.72825441
O  -2.21844610  1.67858264 -3.35275588
H  -1.71867212  2.03103396 -4.14396081
H  -2.91994794  2.33744380 -3.08109770
O   3.21149985 -0.43549684 -2.11249313
H   3.21227328 -0.19138864 -1.14274559
H   4.02931849 -0.06252244 -2.55074320
O   4.26156632  4.48018977 -2.67871318
H   5.11116807  4.24603793 -3.15131269
H   3.61113898  4.86519572 -3.33347592
O   4.55692736 -1.70290998  0.46407309
H   4.34117572 -2.49170736 -0.11146984
H   5.29310338 -1.17379812  0.04207172
O   5.66960208  1.86029097  1.13090458
H   6.24025647  2.66020438  1.31662598
H   5.13902346  1.63255164  1.94737282
O  -2.54022535 -1.17066053 -3.94822965
H  -2.04910787 -0.36329702 -3.62117062
H  -3.52518686 -1.00839761 -3.88887343
O  -1.04590734 -5.33765748  2.64981594
H  -1.45406946 -5.36390546  1.73728361
H  -0.21369298 -5.89203885  2.65878620
O  -3.28366311 -5.67637685  1.05763855
H  -3.54651960 -6.49101308  1.57462397
H  -4.10565027 -5.18979028  0.76171722
O   4.85603682 -1.32967618  3.01763096
H   4.63296620 -1.50348810  2.05845013
H   4.62207286 -0.38521436  3.24839535
O   1.15108458 -3.64971021  4.10420456
H   1.54490248 -3.91089776  3.22290554
H   0.44486205 -4.30901101  4.36222210
O   2.37656466 -4.74035886  1.86010494
H   2.41987769 -4.34420446  0.94294300
H   1.75288645 -5.52203134  1.85643806
O   4.33291690  1.23606059  3.44494190
H   4.70371548  0.88481566  4.30467262
H   3.59169451  1.87853095  3.63941612
O   0.74882857  4.17409083  1.74405279
H  -0.09610780  3.68830153  1.52024212
H   1.39055411  3.54317042  2.18009033
O   0.94446913 -0.61544851 -3.81206391
H   0.91860930 -1.58189538 -4.06762550
H   1.80097357 -0.41977838 -3.33445201
O   2.38629214 -3.92448762 -0.69795475
H   1.54846160 -4.40846208 -0.95055828
H   2.95711581 -3.80034593 -1.50958834
O  -0.86011918  4.23173663 -4.12269208
H  -0.69683774  3.63227126 -4.90626124
H  -0.16227086  4.94760939 -4.09957025
