78
N16 tacrine microhydration cluster; source_frame=5040; time_ps=5050.080000; n_waters=16; atoms=78; max_selected_waterO_min_distance_A=3.652397; selection=nearest_16_water_oxygens_to_tacrine_heavy_atoms
N  -0.38225935 -1.34178683 -0.45980918
N   0.55094244  2.53804162  0.60335220
C   3.70952179 -0.29666850 -0.95354711
C   2.79440428  0.80318406 -0.41113078
C   3.01248361 -1.20037409 -1.97141515
C   1.31845667  0.31513646 -0.16676747
C   1.70955755 -1.81996485 -1.36591899
C   0.88175394 -0.93741843 -0.62814461
C   0.30823852  1.19716409  0.33673919
C  -1.01019142  0.70826391  0.62848628
C  -1.30933140 -0.60753581  0.23330654
C  -2.08466481  1.40616849  1.26666749
C  -2.60734461 -1.18371150  0.38580764
C  -3.30339192  0.86775831  1.46495212
C  -3.58817528 -0.44825694  1.03742183
H   4.62040807  0.17864278 -1.31750476
H   4.15950967 -0.92287013 -0.18316924
H   3.20691587  1.30828050  0.46226037
H   2.73922993  1.47887758 -1.26464950
H   2.68789055 -0.63864466 -2.84731399
H   3.62629797 -1.96954009 -2.44015419
H   1.15658118 -2.18593833 -2.23100888
H   1.93191101 -2.67828128 -0.73192250
H  -1.85171126  2.36249402  1.71115983
H  -2.83052443 -2.19554755  0.08121074
H   1.51432516  2.76355222  0.40052522
H  -0.07451819  3.32022432  0.47262491
H  -4.06201504  1.44425634  1.97342075
H  -4.57138775 -0.86710402  1.19318260
H  -0.67497252 -2.23708483 -0.82430970
O  -1.17060421  4.74725154  0.52618039
H  -1.56379221  5.52032188  1.02394117
H  -1.53960799  4.72670844 -0.40302025
O  -1.08231829 -3.37103030 -2.30032550
H  -2.04807995 -3.44226214 -2.54978573
H  -0.52445267 -3.34975859 -3.12998413
O   3.08480884  3.91928914  0.40157569
H   2.71004488  4.84379676  0.47113145
H   3.87787415  3.83485463  1.00483239
O  -0.15482996 -3.42530104  1.88340200
H   0.70754434 -3.93146464  1.89386905
H   0.02571155 -2.45577094  2.04898179
O   2.17993333  2.27077440  3.31158603
H   2.37986805  2.96651414  4.00149215
H   1.77171709  2.70517686  2.50868285
O  -5.39243935  0.20520356  3.77956355
H  -6.17190693  0.34946016  3.16995633
H  -5.14497612  1.07086233  4.21476234
O  -5.19866513  3.44849351  1.56564868
H  -5.12425183  3.56972650  0.57581819
H  -6.15673016  3.30305150  1.81254733
O   6.86149003 -1.21303317 -1.59569847
H   7.40182950 -1.41010520 -2.41374218
H   6.82650913 -2.02664801 -1.01534759
O   0.27420713 -1.01629492  3.29963649
H  -0.30957125 -0.34638449  3.75835574
H   1.22326018 -0.88201663  3.58471073
O  -4.06042050  1.55892232 -1.89181482
H  -4.55203865  1.33733514 -2.73396134
H  -3.08284520  1.63721898 -2.08730303
O   6.16962446 -0.84935996  1.60416282
H   6.18169333 -1.50290057  0.84736741
H   7.10747744 -0.65477893  1.89151300
O   5.67159183 -1.92413470 -4.28258549
H   5.00276084 -1.38948867 -4.79912995
H   5.69674040 -1.60183760 -3.33628129
O   3.71148600 -0.76275107 -5.49449264
H   3.08010568 -0.10722586 -5.08019160
H   3.67533447 -0.67677924 -6.49013411
O   0.43439438 -0.34003207 -4.41287785
H   0.78472854 -1.18645903 -4.81391203
H   1.19126870  0.29620603 -4.26340582
O  -3.29416226 -1.28362509  4.57419170
H  -3.90404175 -0.60870787  4.15881980
H  -3.72037648 -1.65494773  5.39909232
O   2.55383922  1.42465070 -4.46919285
H   2.27641226  2.04889539 -5.19950288
H   3.49070861  1.63439706 -4.18940335
