78
N16 tacrine microhydration cluster; source_frame=8872; time_ps=8889.744000; n_waters=16; atoms=78; max_selected_waterO_min_distance_A=3.926556; selection=nearest_16_water_oxygens_to_tacrine_heavy_atoms
N  -0.67807585 -1.30191587  0.43997246
N   1.04049796  2.24926831 -0.87200600
C  -1.42586332  2.20881750  2.48290497
C  -1.12645989  2.40692379  1.03678161
C  -2.57395321  1.20492555  2.59944588
C  -0.52105337  1.09946896  0.52534849
C  -2.06550866 -0.17018913  2.13888079
C  -1.11926418 -0.09323405  0.91701109
C   0.48899192  1.04873182 -0.39221304
C   1.02065045 -0.17523859 -0.90013891
C   0.35048563 -1.41736625 -0.43974417
C   1.99852938 -0.26015066 -1.94556778
C   0.65224821 -2.61808608 -1.07241624
C   2.30735249 -1.49499725 -2.48978728
C   1.65142244 -2.68695806 -2.02847188
H  -0.52048212  1.83465816  2.96080691
H  -1.72138530  3.15386559  2.93859202
H  -1.99155193  2.73451735  0.46024210
H  -0.39362388  3.20544840  0.92098195
H  -3.01889997  1.24703099  3.59360367
H  -3.38437563  1.50633504  1.93576795
H  -1.49923926 -0.73072170  2.88268334
H  -2.86532551 -0.88598941  1.94908458
H   2.37554211  0.66975571 -2.34498733
H   0.18815321 -3.47117589 -0.59991902
H   2.01801175  2.35780646 -1.10175854
H   0.65031702  3.04663588 -0.39027613
H   2.96902699 -1.64428638 -3.33020347
H   1.93629688 -3.60922454 -2.51290029
H  -1.13408142 -2.16841052  0.68765408
O  -1.25752383 -3.47355007  1.86520821
H  -0.83892828 -4.34208701  1.59983904
H  -2.25239878 -3.57364581  1.87952763
O   3.85579628  2.95517980 -1.20969057
H   4.50321335  2.70104154 -1.92820632
H   4.31787342  2.93705772 -0.32303601
O   0.38633186  5.32269813 -0.44705885
H  -0.51481586  5.17956127 -0.85625916
H   0.28923649  5.85068299  0.39662630
O   4.41373963  0.86163069 -3.73074561
H   5.19726867  0.55443551 -4.27085036
H   3.61237163  0.94429399 -4.32317799
O  -4.83582073 -1.37198661  3.29226691
H  -5.48519951 -1.03480266  3.97389275
H  -5.32929235 -1.63486169  2.46318156
O   0.36421842 -5.94557594 -1.36014103
H  -0.60241037 -6.18811916 -1.27766931
H   0.60634369 -5.86506961 -2.32704031
O   0.76669962 -5.45011543 -3.99128931
H   0.33053571 -5.50320934 -4.88958877
H   1.70125527 -5.80048679 -4.05329960
O  -0.34684282  0.18292977 -4.52393812
H  -1.13889199  0.32216622 -5.11830443
H  -0.62054330 -0.34999059 -3.72326117
O   2.18125695 -3.08698295 -5.63825553
H   1.23351491 -2.82356618 -5.45826500
H   2.31317223 -3.20522903 -6.62243837
O  -5.16206175  3.92784734  2.47635895
H  -5.17660433  3.47458644  3.36761815
H  -5.23424726  4.91700520  2.60424954
O  -2.06278735  4.93339433 -1.59206852
H  -2.69737678  4.18004091 -1.76456417
H  -2.13101202  5.60270526 -2.33191201
O  -5.28938585  2.49733527  4.87298447
H  -4.45134550  2.03014447  5.15480191
H  -6.01212889  2.31673922  5.54008824
O  -3.40714222 -1.46617053 -2.26999363
H  -3.38807636 -0.46864055 -2.33759668
H  -3.88073641 -1.84513734 -3.06503626
O   5.91657299 -0.39163898 -1.67112225
H   6.16276497  0.26941802 -0.96232533
H   5.32463688  0.04853226 -2.34629684
O   2.11447314  1.49781539 -5.38785475
H   1.55691138  0.93324329 -4.77926367
H   2.33374656  0.98015477 -6.21486562
O  -5.42539650  2.38708617  0.17259437
H  -5.83653885  1.51918353  0.45135409
H  -5.18723064  2.91925551  0.98504311
