78
N16 tacrine microhydration cluster; source_frame=3226; time_ps=3232.452000; n_waters=16; atoms=78; max_selected_waterO_min_distance_A=3.714201; selection=nearest_16_water_oxygens_to_tacrine_heavy_atoms
N   0.46558824  0.86277179 -1.05059474
N  -0.74450336 -1.56028863  1.90258795
C   0.56849160 -3.26666471 -1.93924087
C  -0.17098508 -2.81534024 -0.62013572
C   0.16533580 -2.31240770 -3.08368533
C   0.04487958 -1.36199018 -0.29834312
C   0.76109233 -0.86188897 -2.71155113
C   0.41632142 -0.46386727 -1.29178899
C  -0.28596053 -0.70826300  0.93753821
C  -0.19392571  0.68652455  1.17207724
C   0.22522655  1.50373510  0.14204032
C  -0.53551159  1.26071641  2.44204241
C   0.12194409  2.94906644  0.28860289
C  -0.58057294  2.63293914  2.58255583
C  -0.25742040  3.45495728  1.52789504
H   1.61736121 -3.19289323 -1.65195983
H   0.25117650 -4.26816770 -2.22976297
H  -1.20554767 -3.14814731 -0.53635209
H   0.25058379 -3.37440177  0.21522719
H   0.39542117 -2.64916106 -4.09450620
H  -0.91858993 -2.39215251 -3.16642660
H   1.83213725 -0.77320608 -2.89348119
H   0.37011256 -0.13186153 -3.42027896
H  -0.84820089  0.59597102  3.23371131
H   0.34333625  3.53693322 -0.58991760
H  -0.49384127 -2.49507209  1.61371333
H  -1.52143512 -1.33213731  2.50626380
H  -0.90995297  3.24348477  3.41028983
H  -0.27931771  4.52831200  1.64549739
H   0.88159194  1.34282092 -1.83582967
O  -3.44990913 -1.83513149  3.09391791
H  -3.86916975 -2.11476430  2.23018939
H  -3.65352193 -2.51473292  3.79867560
O   1.31386819 -0.46561083  4.42573268
H   1.57718863 -1.41525086  4.25589091
H   1.92530169  0.14494447  3.92237288
O   0.41113868 -0.42302212 -5.94272357
H   0.44096198  0.46458701 -5.48309224
H  -0.41930017 -0.91039404 -5.67283552
O   2.88429513  4.01709536  2.43012053
H   3.03998818  4.23920885  1.46761042
H   3.74900117  3.74789456  2.85416705
O   3.44082417  0.76223627  0.48011595
H   3.11000457  1.55635140 -0.02972644
H   3.50857654 -0.02378067 -0.13436502
O   1.27447190 -3.22551926  4.06852919
H   1.81558146 -4.01362761  4.36193282
H   0.57117095 -3.03092393  4.75226885
O  -2.01892886 -5.14617451  1.05528266
H  -1.60072455 -5.24015292  1.95876128
H  -2.28566704 -6.04824742  0.71599681
O   3.61818995 -1.57211908 -0.79282516
H   4.50150456 -1.93736657 -1.08667987
H   3.21825805 -2.17919549 -0.10615772
O   3.05424418  3.03173879 -1.67430871
H   3.80777135  2.76981643 -2.27729600
H   2.48343816  3.71396819 -2.13119357
O  -1.80743394 -2.03076466 -5.94420999
H  -1.83125553 -3.02868327 -5.88427776
H  -2.37659047 -1.63973078 -5.22091668
O  -3.62371937  0.66236404  4.11208636
H  -3.36586527  0.58672503  5.07530505
H  -3.52821163 -0.22971972  3.67042452
O   2.58546319 -1.81098160 -5.66289562
H   2.97153916 -2.07859095 -6.54569250
H   1.88220754 -1.11420950 -5.80410546
O   1.13000979  6.17447559  3.46208579
H   1.64690795  5.48876110  2.94962889
H   0.53833404  6.68240634  2.83604533
O   2.24025550 -4.38124617 -5.20023053
H   1.48847594 -4.80526742 -5.70523971
H   2.24629703 -3.39679536 -5.37578576
O   2.70547595 -3.32498559  1.53324229
H   3.39446893 -4.04560431  1.45579821
H   1.92184272 -3.66739520  2.05158049
O  -2.16936836  0.99575094 -4.03701704
H  -2.76952384  1.38279024 -4.73702687
H  -1.25059328  1.37753437 -4.13748639
