78
N16 tacrine microhydration cluster; source_frame=4738; time_ps=4747.476000; n_waters=16; atoms=78; max_selected_waterO_min_distance_A=3.987631; selection=nearest_16_water_oxygens_to_tacrine_heavy_atoms
N   0.46482931  1.30429058  0.49707791
N  -0.65541126 -2.44605465 -0.75611225
C  -2.66684927 -0.58013554  2.58026358
C  -1.67996325 -1.51168079  1.73277232
C  -1.97667231  0.55057697  3.33049437
C  -0.68413402 -0.69542713  0.86193535
C  -0.79910161  1.25327950  2.56886336
C  -0.28233434  0.60192757  1.28344509
C  -0.26021053 -1.17176933 -0.34564284
C   0.62262140 -0.43157978 -1.11360160
C   0.94670795  0.88693504 -0.72547558
C   1.13327919 -0.84027309 -2.45392087
C   1.72294865  1.76501446 -1.50307062
C   1.89302085  0.03445225 -3.22713760
C   2.22126923  1.28044395 -2.72989062
H  -3.43946280 -0.20458908  1.90934369
H  -3.11543383 -1.20015736  3.35643622
H  -1.01224996 -1.91558762  2.49377057
H  -2.22719683 -2.29118176  1.20266434
H  -2.65283741  1.34100990  3.65625045
H  -1.76722635  0.09926014  4.30031153
H  -1.09482838  2.28881912  2.40062615
H  -0.06859793  1.45615177  3.35200307
H   0.81637894 -1.75115604 -2.93999198
H   2.00762664  2.75010376 -1.16401795
H  -1.36128952 -2.90667791 -0.19963888
H   0.06776129 -2.98789186 -1.20725945
H   2.24938022 -0.35788269 -4.16813758
H   2.87963806  1.84595184 -3.37265972
H   0.71621202  2.22502880  0.82745287
O   1.24171285 -4.37213535 -1.52739516
H   0.94533597 -5.14840479 -0.97100845
H   1.48269570 -4.69161530 -2.44383380
O   0.05983339  4.08733063  0.78075406
H  -0.55273821  4.56054764  1.41385886
H   1.00472085  4.19035320  1.09151742
O  -1.55765869 -4.68812199  0.98718568
H  -1.70945622 -5.53519459  0.47784778
H  -0.66597630 -4.72566910  1.43828723
O  -1.61467244  0.29070549 -3.44625119
H  -1.05025579  0.70997410 -4.15734008
H  -2.08231928  1.00599556 -2.92695692
O  -2.55731179 -3.00141830 -3.38203863
H  -2.12921287 -2.33166237 -2.77527824
H  -2.35968353 -2.76381130 -4.33308330
O   0.14883350  1.83791809 -5.37284258
H   0.88438956  1.59315567 -6.00454548
H   0.49881874  2.47209148 -4.68339732
O   3.40740691  2.40595322  1.78934619
H   4.05140899  2.01875668  1.12954303
H   3.45125209  1.88602047  2.64242741
O  -5.45943143 -2.71335049  3.15950390
H  -5.41499211 -1.99829311  3.85715577
H  -6.19326140 -2.50349827  2.51339575
O   2.06502537  0.97884445  4.70743319
H   2.90540098  0.73140316  4.22520730
H   2.21585803  1.81717091  5.23132226
O  -0.40127422  4.47973614  4.19909045
H  -0.89592053  5.02369957  3.52127930
H   0.55292819  4.77696686  4.23302886
O   3.17567263  3.48844414 -5.56719950
H   3.69119953  4.00150280 -4.88090280
H   2.19936399  3.67641525 -5.46001509
O   2.41353129  5.54248886 -1.39745501
H   2.48039584  5.36989098 -0.41473499
H   1.83571736  6.34296684 -1.55672363
O  -2.60646941  3.38600426 -0.61280456
H  -2.52315070  3.12391834 -1.57424566
H  -1.70947315  3.33303528 -0.17395118
O  -4.51033999  2.67384510  1.27445075
H  -3.66950251  2.81781464  0.75266048
H  -5.20130326  2.25605850  0.68451473
O   4.89617012  0.71217232  0.52998254
H   4.32410692  0.10380154 -0.02013543
H   5.82770894  0.71292763  0.16634127
O  -5.52410008  2.23994427  4.01093194
H  -4.90436246  2.06715469  3.24538037
H  -6.36672665  2.65684681  3.67009160
