78
N16 tacrine microhydration cluster; source_frame=3831; time_ps=3838.662000; n_waters=16; atoms=78; max_selected_waterO_min_distance_A=3.913560; selection=nearest_16_water_oxygens_to_tacrine_heavy_atoms
N  -0.47180548  0.76163387  1.15644862
N   0.83988628 -1.13194561 -2.24922798
C  -3.22328463 -1.51515484 -0.98787211
C  -1.99140635 -1.00861549 -1.77714299
C  -3.89615479 -0.44178200 -0.11569451
C  -0.93951406 -0.41505623 -0.84305428
C  -2.92787447  0.59107876  0.53538062
C  -1.42429676  0.28983021  0.27266361
C   0.42552147 -0.55376148 -1.06997774
C   1.34229026  0.01774502 -0.14624976
C   0.87797055  0.67738819  0.98286320
C   2.80775700 -0.05474186 -0.25763033
C   1.76877079  1.21233702  1.93181528
C   3.65702353  0.49398613  0.72756840
C   3.15511665  1.07705832  1.84010996
H  -3.92170229 -1.97524643 -1.68689202
H  -2.95635262 -2.29398918 -0.27354382
H  -1.58803072 -1.83211136 -2.36641644
H  -2.34430494 -0.14185333 -2.33596800
H  -4.72299519  0.03552532 -0.64163445
H  -4.45691051 -0.97646809  0.65096308
H  -3.16569271  1.59242964  0.17643882
H  -3.14979782  0.60227299  1.60249116
H   3.27592788 -0.56290436 -1.08768318
H   1.40114651  1.60848808  2.86686458
H   0.21228395 -1.83196926 -2.61825751
H   1.77464042 -1.50358391 -2.15856360
H   4.72227964  0.33693790  0.64410235
H   3.89256678  1.41225958  2.55439808
H  -0.73054495  1.14762306  2.05320157
O  -0.25939336 -3.30973244 -3.66499852
H   0.68475494 -3.13307476 -3.94316338
H  -0.88015261 -3.03515911 -4.39934681
O  -1.53181877  2.48109245  3.21483649
H  -1.73176327  3.42056036  3.49308549
H  -2.09323540  1.84872484  3.74861796
O   2.45340738 -3.18433285 -3.78623103
H   3.17201725 -3.27133274 -3.09628104
H   2.58501325 -3.87848091 -4.49393032
O   1.61578200  4.57081652  1.84666754
H   0.68306742  4.83265448  1.59870626
H   1.67678354  4.45386887  2.83793046
O   4.50463316 -1.81219769  3.28021778
H   5.24066672 -1.94244862  2.61592175
H   4.74418006 -1.06572723  3.90102400
O  -4.50497332 -2.03746605 -4.27060459
H  -4.63854733 -3.02720833 -4.32126950
H  -5.29908504 -1.61593914 -3.83276699
O   6.31092010  2.24624681 -0.98597954
H   5.34672472  2.15929174 -1.23651169
H   6.86506591  2.32294273 -1.81485842
O   4.25122283 -0.64009953 -3.52833889
H   3.71531091  0.18743324 -3.69563578
H   3.89541790 -1.38689041 -4.09021710
O  -0.17327156 -4.30321503 -0.80255268
H  -0.43663397 -4.08132076 -1.74138354
H  -0.86131372 -4.90477562 -0.39669178
O  -0.46820679 -3.16384792  1.52638890
H  -0.87936153 -3.87874222  2.09196629
H  -0.18558660 -3.55357265  0.64989568
O  -2.38433590 -2.00810242  3.13300927
H  -1.99992647 -2.44091415  3.94842501
H  -1.74436321 -2.10555458  2.37081684
O  -7.43482151 -1.67193317  0.11625005
H  -6.99661865 -1.29938889  0.93428947
H  -8.18552055 -1.07272530 -0.16195892
O   1.74337516 -1.18033314  4.89891173
H   2.66726366 -1.07987118  4.52967294
H   1.26831708 -0.30162907  4.85202946
O  -0.08540478  1.11602259  5.30752041
H  -0.14465990  2.06857347  5.60607518
H  -0.97977915  0.67964697  5.40586163
O  -3.87249603 -4.20308590  1.73896648
H  -3.85287848 -4.99272156  2.35222973
H  -3.54808035 -3.39327145  2.22779562
O   6.28199682 -1.17283440 -1.67024420
H   6.37800488 -2.12174702 -1.36966799
H   5.53786645 -1.10745525 -2.33507155
