78
N16 tacrine microhydration cluster; source_frame=7964; time_ps=7979.928000; n_waters=16; atoms=78; max_selected_waterO_min_distance_A=3.838145; selection=nearest_16_water_oxygens_to_tacrine_heavy_atoms
N  -0.57966283 -0.31992613  1.32960343
N   0.79074189  0.55782045 -2.51481152
C  -1.27250055 -3.21455371 -1.57634830
C  -0.49756482 -1.99599158 -2.05401707
C  -0.79889730 -3.75990760 -0.28564596
C  -0.23243287 -0.94464575 -0.93531275
C  -1.06506112 -2.70101344  0.83289766
C  -0.66749051 -1.28223502  0.34063125
C   0.38156554  0.31164373 -1.22560930
C   0.50607964  1.28073419 -0.11069822
C  -0.00636295  0.95446313  1.17646122
C   1.11957833  2.60184825 -0.26302910
C   0.22966906  1.90980924  2.30046237
C   1.23673197  3.46240247  0.85598803
C   0.85560652  3.13955177  2.12942827
H  -2.32381872 -3.04594504 -1.34310532
H  -1.25190786 -4.04448687 -2.28266764
H   0.38866851 -2.29560744 -2.61341047
H  -1.24066785 -1.62810122 -2.76151633
H  -1.38082269 -4.63394820  0.00678277
H   0.26638648 -3.98633658 -0.33038855
H  -2.14831594 -2.74210822  0.94678926
H  -0.64607671 -2.94561564  1.80897236
H   1.41183230  2.86001170 -1.27017307
H  -0.05389646  1.49831546  3.25788796
H   0.94737574  1.49665225 -2.85268760
H   0.49847027 -0.08281123 -3.23887515
H   1.65113207  4.41966070  0.57611465
H   1.00402209  3.91987336  2.86118686
H  -0.80152086 -0.60274970  2.27347279
O  -0.13978675  2.95991195 -3.74537802
H  -0.85088685  3.54163087 -4.14027119
H   0.72449156  3.46216834 -3.71778297
O  -1.98164132 -0.72386920  3.79199871
H  -1.88915876 -1.68909156  4.03652312
H  -2.89518789 -0.40281569  4.04171589
O   0.75022360 -1.92513835  3.59436154
H  -0.06431964 -2.49746691  3.68901631
H   1.23523471 -1.88852488  4.46810275
O   3.45361087 -1.04173743 -2.45778227
H   4.40059325 -0.87527835 -2.73258257
H   3.17147919 -0.34693896 -1.79622698
O   4.34009358  3.57358135  1.18498540
H   5.01716229  4.25073684  1.47314882
H   4.00370595  3.80604852  0.27240515
O   3.99447891  1.32368577 -0.82707882
H   4.58072349  0.59063161 -0.48219013
H   4.56148383  2.04294933 -1.22853374
O  -2.30445627  1.02849496 -3.26098871
H  -2.90879014  1.26130212 -2.49902964
H  -1.48618940  1.60218824 -3.22472286
O   0.72444579  6.76329077  1.51879239
H   0.08067891  6.38322318  2.18295550
H   0.21822211  7.15606416  0.75102496
O  -2.77491430  2.51281465 -0.25180435
H  -2.18617490  2.16914666  0.47982264
H  -2.99934152  3.47140897 -0.07650518
O   2.76578423 -1.23224627  1.67240620
H   3.02085158 -0.34328543  2.05278659
H   2.39313456 -1.81074320  2.39799166
O   1.99480530 -2.29856764 -4.61464310
H   1.90405270 -1.61118876 -5.33525085
H   2.35639378 -1.86851393 -3.78741360
O   2.92781970 -2.75126158 -0.42126894
H   2.96873757 -2.23990809 -1.27966499
H   2.76233956 -2.11912333  0.33571029
O  -1.23256067 -7.27992140 -1.28776646
H  -1.40618852 -8.26219832 -1.35837555
H  -0.25081971 -7.12172019 -1.18213797
O  -1.15516618  5.87396968  3.60981447
H  -1.49614576  6.60056341  4.20629996
H  -1.14480451  5.00867761  4.11097610
O   3.95447060  1.02227605  2.57917523
H   4.94399878  0.88303102  2.54115987
H   3.69141647  1.72663177  1.91986871
O   2.68141553  1.68225492 -5.66002369
H   2.44367453  2.46902335 -6.22965050
H   2.03083274  0.94133771 -5.82670784
