78
N16 tacrine microhydration cluster; source_frame=5645; time_ps=5656.290000; n_waters=16; atoms=78; max_selected_waterO_min_distance_A=3.720361; selection=nearest_16_water_oxygens_to_tacrine_heavy_atoms
N  -1.20523281 -0.79687017  0.03444351
N   2.33373361  1.33526045 -0.15146577
C   0.41362410 -0.15980523 -3.74526250
C   1.07644038  0.62117201 -2.59566819
C  -1.13739986 -0.33695310 -3.56827008
C   0.51947360  0.17582423 -1.21808421
C  -1.51800866 -0.99954027 -2.29648387
C  -0.71251817 -0.50252145 -1.13688122
C   1.16054778  0.58566291 -0.03555142
C   0.54014735  0.32028586  1.27226222
C  -0.69174213 -0.38415426  1.22151674
C   1.09555202  0.61841113  2.51324380
C  -1.41140742 -0.66175645  2.40231407
C   0.38045721  0.41287619  3.68317211
C  -0.84366698 -0.22789186  3.62071479
H   0.56277041  0.45826060 -4.63061558
H   0.81124835 -1.15519040 -3.94326150
H   2.13784509  0.43487555 -2.75941979
H   0.82895951  1.66777331 -2.77308594
H  -1.50311918  0.68428618 -3.67513692
H  -1.42996509 -1.00582116 -4.37766587
H  -2.57888193 -1.01529401 -2.04668414
H  -1.24345775 -2.04384130 -2.44533478
H   2.02654605  1.16508013  2.54158343
H  -2.37015302 -1.15399640  2.33226813
H   2.74851661  1.31594378 -1.07216202
H   2.99513893  1.45558745  0.60230077
H   0.75007634  0.50802523  4.69348300
H  -1.29580326 -0.36387533  4.59204448
H  -2.08991308 -1.27882474  0.10628236
O  -3.56371265 -2.25439065  0.62826837
H  -4.43500620 -2.52019590  0.21572126
H  -3.73407085 -1.79498285  1.50000347
O   3.77531486  2.60433489  2.29373062
H   3.66232448  2.54976088  3.28582681
H   4.45772033  1.93554885  1.99869264
O   1.16305499 -1.16379064 -6.64161717
H   0.18589859 -1.36387533 -6.56998097
H   1.29460530 -0.17809289 -6.74694287
O   2.86245589  3.55623156 -2.36950146
H   3.72185855  3.05408389 -2.46580731
H   2.83895307  4.00882155 -1.47809254
O   3.00659471  4.57163912  0.41158880
H   3.96125751  4.86515052  0.36189283
H   2.91479926  3.85095126  1.09874452
O   2.25806909 -2.40920251  4.02920807
H   1.95866160 -2.79766267  4.90067465
H   1.89087443 -2.95606988  3.27680934
O   5.28243260  0.56046778  1.48997510
H   4.83559232  0.12993056  2.27417649
H   5.21505551 -0.04284566  0.69532169
O   1.50397639 -3.10388845 -0.45858132
H   1.47610621 -3.90717786 -1.05351864
H   2.10452132 -2.41241735 -0.86009537
O   3.40958791 -1.97496312 -2.35821950
H   3.13463979 -2.32750600 -3.25271165
H   4.05480914 -1.22091573 -2.48110806
O  -4.89469798 -1.03514474  2.93459380
H  -4.91603382 -1.14893430  3.92786969
H  -5.47754617 -0.26524537  2.67470396
O   4.27490621 -0.51172345  3.59611357
H   3.41030984 -0.97255700  3.79637731
H   4.40197997  0.24949938  4.23203255
O   1.76301150  2.03722293 -6.25117623
H   2.19128947  2.14677436 -7.14815842
H   1.66637855  2.93254859 -5.81637227
O  -3.88097293  1.82740027  1.55330671
H  -3.02367957  2.33813864  1.48854554
H  -3.94958414  1.40453059  2.45689667
O   5.14383225  2.25518805 -2.26642882
H   5.45194154  2.43623454 -1.33246361
H   5.28530126  1.28916175 -2.48271691
O   3.43695121  2.23201949  4.78698904
H   3.17056041  1.50118548  5.41541404
H   3.86382442  2.97534663  5.30200774
O   2.52863746 -3.00199121 -4.88094746
H   2.00555234 -3.85340541 -4.91936528
H   2.15932565 -2.35357564 -5.54665505
