78
N16 tacrine microhydration cluster; source_frame=8367; time_ps=8383.734000; n_waters=16; atoms=78; max_selected_waterO_min_distance_A=3.867683; selection=nearest_16_water_oxygens_to_tacrine_heavy_atoms
N   0.21438770  0.70620176  1.33282927
N  -0.15367670 -1.23118499 -2.36332580
C  -2.38189502  2.60409674 -1.56209728
C  -1.89441438  1.15986237 -1.97557136
C  -2.60902067  2.82161495 -0.07899639
C  -0.86819573  0.62442705 -0.87459490
C  -1.27444644  2.59189638  0.68598250
C  -0.64910264  1.25548801  0.37772492
C  -0.07581849 -0.59061924 -1.12302825
C   0.81058030 -1.14119855 -0.11963197
C   0.86005412 -0.46989766  1.12017039
C   1.45287828 -2.44224909 -0.27392694
C   1.76027755 -0.95263353  2.16543415
C   2.32135467 -2.83867553  0.74631670
C   2.48703746 -2.09712866  1.94271496
H  -1.51277919  3.18343517 -1.87371346
H  -3.17098947  2.87120840 -2.26500603
H  -2.77796503  0.52188048 -1.99600264
H  -1.48180576  1.10421809 -2.98292371
H  -3.01339097  3.82575866  0.04859570
H  -3.43909021  2.25900301  0.34826544
H  -0.53966470  3.37516662  0.49974850
H  -1.55375023  2.74369022  1.72859886
H   1.40063731 -3.03212217 -1.17709943
H   1.84887342 -0.52924183  3.15502528
H   0.50605731 -1.97616771 -2.53610226
H  -0.84904976 -0.97470358 -3.04945537
H   2.95497136 -3.71045473  0.81654051
H   3.15303020 -2.40988901  2.73330668
H   0.33603994  1.06732186  2.26818636
O  -2.24312945 -1.30374134 -4.06696930
H  -2.13561387 -2.29161096 -4.17901340
H  -2.82916208 -0.94756842 -4.79477897
O   0.68379442  2.08559498  3.67047480
H   0.05292646  2.83167109  3.88349036
H   0.54707210  1.33774814  4.32011488
O   0.23130362  0.78109464 -4.65174651
H  -0.01565154 -0.15676204 -4.89554553
H  -0.51377650  1.39836487 -4.90439862
O  -3.29772373 -1.88672492 -1.52911755
H  -2.66448636 -2.47881726 -1.03068349
H  -2.85631700 -1.55282834 -2.36198804
O  -5.34088273  1.36275419 -2.43731424
H  -5.07259698  0.80689511 -1.65052077
H  -5.86267801  2.15572914 -2.12279770
O   2.98475854  2.38963517  2.12697581
H   2.03269915  2.35156593  2.43051079
H   3.58305292  2.08212575  2.86689595
O   2.07650958  1.65471014 -2.39715501
H   1.34923266  1.32514438 -2.99919745
H   1.93443964  2.62539038 -2.20325753
O   2.85339217 -0.99533774  5.53751639
H   3.33231871 -1.05133483  6.41358450
H   2.26063691 -1.79352214  5.43007830
O  -4.18310018  5.64315113 -1.92076465
H  -4.11669345  5.70626673 -2.91655919
H  -4.79526325  6.35744795 -1.58159372
O  -1.69672532 -3.92825499  0.51848915
H  -2.50833078 -4.49206057  0.67152479
H  -0.95893426 -4.23606220  1.11925438
O   0.31069557 -1.85294339 -5.85009345
H  -0.30962451 -2.59245458 -5.58870092
H   1.07572214 -2.22878978 -6.37304088
O   0.33640174 -4.83607879 -3.00318238
H  -0.40079410 -4.16691318 -3.09677502
H   0.18308930 -5.59208408 -3.63954040
O   1.42884292  4.03984102 -1.41804167
H   0.60966905  4.49716362 -1.07190558
H   2.22586735  4.34356198 -0.89602062
O  -4.96896835 -0.09579030 -0.29915210
H  -4.38304325 -0.75362936 -0.77237436
H  -4.59294649  0.09326038  0.60796812
O  -4.76565786  3.32478460 -4.51393637
H  -4.61567970  2.63512119 -3.80550787
H  -5.58544631  3.09224161 -5.03726288
O  -3.13169094  2.15042457  4.04971865
H  -3.26558538  1.28324875  3.57005385
H  -4.01842542  2.58589682  4.20484999
