78
N16 tacrine microhydration cluster; source_frame=9981; time_ps=10000.008000; n_waters=16; atoms=78; max_selected_waterO_min_distance_A=3.737385; selection=nearest_16_water_oxygens_to_tacrine_heavy_atoms
N  -0.21170192  1.44290845  0.04477156
N   0.02198739 -2.64334997  0.31565053
C   2.82539744 -0.06601222  2.28127945
C   1.67545576 -1.04204543  2.06056250
C   2.26432700  1.27780453  2.83337677
C   0.69390483 -0.46944698  1.00430435
C   1.40398402  1.91562096  1.78569186
C   0.58111901  0.90187852  0.95328278
C  -0.03090196 -1.25863536  0.19270868
C  -0.72964816 -0.66238769 -0.89819133
C  -0.89057260  0.70804612 -0.93470209
C  -1.42842011 -1.39556201 -1.96953237
C  -1.64820819  1.36730687 -1.86961257
C  -2.20548253 -0.73374160 -2.92352283
C  -2.32124000  0.65761582 -2.87606728
H   3.47981114 -0.57546695  2.98859775
H   3.41857691  0.15574280  1.39411390
H   2.04813666 -1.98964389  1.67163504
H   1.24951453 -1.28763660  3.03337229
H   1.69124575  1.12408177  3.74773300
H   3.10120387  1.90024678  3.15008438
H   0.83000560  2.67373768  2.31852115
H   2.05070324  2.39444844  1.05045140
H  -1.34726768 -2.47143157 -2.01768243
H  -1.64677768  2.44316880 -1.77517235
H   0.39903493 -3.08095821  1.14416373
H  -0.66126828 -3.14241966 -0.23588454
H  -2.76113992 -1.21964248 -3.71190416
H  -2.76438527  1.23431317 -3.67446792
H  -0.39760404  2.43553750  0.05987710
O   0.27802606  4.12044827 -0.26486283
H  -0.10729270  4.78876893 -0.90116113
H   0.94292350  4.57173268  0.33032900
O  -0.90118079 -5.09994443 -1.23861366
H  -0.04326730 -4.99192556 -1.74092513
H  -1.42456679 -5.85603031 -1.63155299
O   1.51679773  2.53989426 -2.28812855
H   1.57837267  3.17306344 -3.05968910
H   1.17994971  3.02764241 -1.48274940
O   4.22274394 -1.76414855 -0.13602799
H   4.22065778 -2.67639764 -0.54565882
H   4.60281463 -1.10724433 -0.78719878
O   4.39988763 -3.00161250  2.37889523
H   4.00471337 -2.69295772  1.51369614
H   5.11759962 -2.36591514  2.66311068
O  -4.60940938  2.76954381 -1.06878873
H  -4.64812188  3.65285031 -0.60159400
H  -4.42384343  2.91438214 -2.04068753
O  -2.63597589 -1.12912925  2.33637113
H  -2.16068988 -1.53872093  3.11504835
H  -2.92306142 -1.84928497  1.70474118
O   0.24593635 -3.73212941  3.55714792
H  -0.38142400 -3.02110513  3.87473864
H   1.10318370 -3.67299970  4.06864638
O  -3.28448586 -3.32651790  0.88515395
H  -3.40281682 -4.21432193  1.32990331
H  -3.80228143 -3.31056245  0.02979839
O   4.21513064  2.62689130 -0.08243680
H   4.62927265  3.39911000  0.39939803
H   4.05469246  2.87707154 -1.03725075
O  -3.64792924  1.33604733  1.06730658
H  -3.64417653  0.34016244  1.15786428
H  -4.01142316  1.58780781  0.17037326
O   4.17295201  3.19405476  5.18839831
H   3.36575778  2.83856789  5.65963787
H   4.80302305  3.58804814  5.85756153
O   2.75404019 -0.59893974  5.86573357
H   2.83711309 -0.77228530  6.84708494
H   3.65974302 -0.42144092  5.48077101
O  -0.82154374  4.69418828 -3.22802239
H  -1.08205705  5.50298039 -2.70077723
H  -0.32226710  4.97682492 -4.04707056
O   5.34079659 -0.02567752  4.98245901
H   5.81701344 -0.58523353  4.30414194
H   6.00933331  0.39831273  5.59343476
O   1.57513876  5.26826970  3.42840380
H   2.25942273  5.79926697  3.92820067
H   1.93405933  5.02658955  2.52686757
