78
N16 tacrine microhydration cluster; source_frame=7057; time_ps=7071.114000; n_waters=16; atoms=78; max_selected_waterO_min_distance_A=3.818764; selection=nearest_16_water_oxygens_to_tacrine_heavy_atoms
N  -1.06509831  0.52640082 -0.90935292
N   2.08309219 -0.72477220  1.58417926
C  -1.43461247  1.17440249  3.33870778
C  -0.04747453  1.06751658  2.69522319
C  -2.46223845  1.62299945  2.22709117
C   0.00322828  0.51073195  1.25191746
C  -2.10766461  1.85554148  0.78024468
C  -1.02339243  0.89663722  0.36817656
C   0.99273823 -0.42237447  0.75415335
C   0.92620180 -0.82274984 -0.59809270
C  -0.17698219 -0.39959024 -1.44175735
C   1.93083260 -1.60034345 -1.23550525
C  -0.29665079 -0.68571256 -2.83570971
C   1.82275388 -1.78599714 -2.56335225
C   0.85526679 -1.21269010 -3.41592326
H  -1.68838497  0.20900752  3.77655730
H  -1.51059633  1.83084609  4.20554576
H   0.43778405  2.03852488  2.79405174
H   0.56168006  0.50704314  3.40437732
H  -3.38177683  1.03848101  2.25687609
H  -2.85386243  2.58581568  2.55529199
H  -2.89962485  1.68933226  0.04998884
H  -1.85354354  2.90856005  0.65911016
H   2.82858536 -1.87082074 -0.69951882
H  -1.11045112 -0.19723962 -3.35099902
H   2.73632739 -1.47725080  1.41938386
H   2.12074683 -0.21729825  2.45661960
H   2.57772467 -2.32798742 -3.11350169
H   0.93451402 -1.27323697 -4.49130883
H  -1.87279125  0.80388858 -1.44854941
O  -3.18705033  1.37186362 -2.74755826
H  -3.81801581  2.09388758 -2.46372142
H  -2.41762250  1.77680232 -3.24152722
O   4.41820885 -2.72348188  1.78025088
H   4.64035154 -1.78047727  1.53246925
H   4.89871431 -2.96890329  2.62220291
O  -3.58332180 -1.28925966 -0.44944396
H  -3.05333077 -1.35662435 -1.29476752
H  -4.46598100 -0.86080812 -0.64268413
O   1.76886631  2.20430495  5.14546487
H   2.55734421  2.36530902  5.73908076
H   1.31798244  3.07450606  4.94683836
O   3.65114237  2.31285311  1.63696561
H   2.73648096  1.94717433  1.80922518
H   4.15160442  2.37918593  2.50017927
O   0.23883725 -2.26483701  4.08034364
H   0.70893908 -3.14539216  4.02012274
H  -0.72551381 -2.38502477  3.84458545
O   4.89291311  0.13246657 -1.83440175
H   5.09195209 -0.40602182 -1.01561418
H   4.95940424  1.10632159 -1.61717572
O  -1.21059298 -4.08442281 -2.31899133
H  -2.19321274 -4.01231740 -2.49004474
H  -0.70838653 -3.69606469 -3.09162726
O   3.49215389  1.16165091 -3.97144523
H   3.90951849  0.59079672 -3.26438632
H   3.36521841  0.62193896 -4.80366960
O   2.47841478 -0.62985013  5.17261837
H   2.18872524  0.32616831  5.21856043
H   1.67310453 -1.21961568  5.11218998
O   0.57192803 -1.02572988 -7.03150716
H  -0.05702578 -1.76157258 -6.78060212
H   0.12938357 -0.41995691 -7.69271340
O   3.39017416 -0.48692201 -6.05659070
H   4.03988815 -1.24540971 -6.00591722
H   2.71123625 -0.67643712 -6.76590505
O  -1.32599450  1.64696242 -5.60760560
H  -1.10915738  2.23292472 -6.38839307
H  -1.61210451  0.74671675 -5.93578210
O   4.70237137 -3.78993963 -4.01057019
H   4.72447992 -4.71396135 -3.62886825
H   4.97307325 -3.13232587 -3.30753102
O   2.36989261 -4.60867093  1.04937277
H   1.79541469 -4.43778776  1.84985659
H   3.25148559 -4.15184949  1.16815004
O  -3.88461637 -0.88675474 -4.12762561
H  -3.40462588 -0.72626756 -4.99009480
H  -3.84748649 -0.05977987 -3.56661525
