78
N16 tacrine microhydration cluster; source_frame=7460; time_ps=7474.920000; n_waters=16; atoms=78; max_selected_waterO_min_distance_A=3.643405; selection=nearest_16_water_oxygens_to_tacrine_heavy_atoms
N  -0.73125779  1.19910596  0.52260440
N   0.98608173 -2.33564641 -0.73835236
C  -1.59682500 -0.13867022 -3.45708663
C  -0.52738606 -0.84330823 -2.65283639
C  -1.64379346  1.32618640 -3.13022620
C  -0.39434563 -0.44257142 -1.20223910
C  -1.85077941  1.55158542 -1.63865382
C  -0.94907986  0.76736139 -0.72058684
C   0.45403732 -1.14025284 -0.30773980
C   0.79956783 -0.58022858  0.93839448
C   0.13641418  0.58940910  1.34506148
C   1.67860092 -1.20072009  1.89368575
C   0.45404495  1.19213556  2.56690687
C   1.91751159 -0.55056407  3.12459319
C   1.26720870  0.60617803  3.45647496
H  -1.61583459 -0.28807618 -4.53663165
H  -2.54000985 -0.64032628 -3.24065262
H  -0.61383378 -1.92000248 -2.79897505
H   0.43845237 -0.74759795 -3.14891678
H  -0.83025300  1.96015333 -3.48284251
H  -2.41336428  1.81289266 -3.72937352
H  -1.85360419  2.62807964 -1.46761853
H  -2.82582127  1.18107770 -1.32223899
H   2.22927154 -2.08500435  1.60872477
H  -0.02761590  2.08132003  2.94605678
H   1.55149139 -2.71939661  0.00538677
H   0.48419536 -2.98066546 -1.33178288
H   2.52689041 -1.08867623  3.83557337
H   1.43398250  0.98068689  4.45563954
H  -1.10825288  2.10890125  0.74676388
O  -0.75289189 -4.52663060 -1.83507020
H  -0.25393712 -5.09100373 -2.49273783
H  -1.72704732 -4.53420802 -2.06082255
O  -2.07757651  3.81753467  1.27218383
H  -2.59465014  4.54827808  0.82648319
H  -1.33323037  4.21528266  1.80860346
O   3.22965587 -3.28796603  4.02589570
H   2.32151855 -2.99639179  4.32634755
H   3.76647628 -3.57620563  4.81882726
O   1.56031860  3.03119682  5.52155524
H   1.94703925  3.81945918  6.00018876
H   0.77122844  2.68667529  6.03012353
O  -1.43598687  1.54533790 -6.31531436
H  -1.48713338  1.63703750 -7.30978686
H  -0.67540967  2.09428476 -5.96864707
O   4.84212936  0.15881704  1.96675890
H   5.08230747  0.58218978  2.84029764
H   4.92203105 -0.83492209  2.04485291
O   1.44918884  4.08095287  1.33449930
H   2.37589420  4.42960475  1.47470802
H   0.88416160  4.30775283  2.12778729
O   3.35420097  0.81219457  6.10318130
H   3.08345760  1.72981284  5.81219226
H   4.12616027  0.50095867  5.54891508
O   0.76435436 -3.03475525  5.16654127
H  -0.20117222 -2.93531133  4.92598068
H   1.00169338 -2.36956598  5.87449127
O  -3.90317809 -1.57793976 -1.25784642
H  -4.38952386 -1.10573317 -1.99302537
H  -3.43209635 -2.37775852 -1.62983042
O  -3.96005522  0.09015010  1.27933138
H  -4.57277190  0.81447862  0.96322029
H  -3.53933512 -0.35828950  0.49072712
O  -0.75531518 -2.75149466 -5.71327216
H  -0.42282330 -3.07478382 -6.59923655
H  -1.74836861 -2.86084224 -5.66983706
O  -2.12394940 -3.23626544  1.02101057
H  -1.92294823 -2.45048095  0.43608230
H  -3.08175933 -3.50016798  0.90718788
O  -5.13602292  2.18405650 -3.35019547
H  -5.74791013  2.25470327 -4.13797862
H  -4.37247788  2.81985782 -3.46313578
O  -5.13331210  1.89901326 -0.17368418
H  -4.85082518  1.84018062 -1.13114936
H  -6.12772166  1.99255393 -0.12469823
O   3.35766376  1.88830636  0.14034527
H   2.84487880  2.67714046  0.47915452
H   3.79666103  1.42142461  0.90800565
