78
N16 tacrine microhydration cluster; source_frame=7258; time_ps=7272.516000; n_waters=16; atoms=78; max_selected_waterO_min_distance_A=3.727276; selection=nearest_16_water_oxygens_to_tacrine_heavy_atoms
N  -1.17671029  0.96286974  0.13929816
N   2.17385181 -1.52994814  0.00025054
C   2.14753707  1.94623671 -2.15240292
C   2.46333297  1.20221338 -0.85239391
C   1.08254035  3.12596617 -1.89976029
C   1.13337406  0.58601198 -0.34575752
C   0.23323520  2.95106611 -0.62871675
C   0.02137407  1.46641169 -0.27665166
C   1.03132184 -0.72167530  0.08167930
C  -0.19640414 -1.23951807  0.58099004
C  -1.34226386 -0.34802189  0.54463359
C  -0.42253415 -2.57565393  1.02097603
C  -2.69742171 -0.79591169  0.88658639
C  -1.65569178 -2.92107668  1.49622329
C  -2.79554145 -2.10897007  1.40504571
H   3.06545528  2.38232718 -2.54654888
H   1.72601660  1.39638624 -2.99388031
H   3.25683387  0.46683559 -0.98534397
H   2.76877578  1.86025534 -0.03889183
H   1.55972131  4.10480890 -1.85216335
H   0.44226964  3.11131105 -2.78176836
H   0.76118596  3.43804941  0.19117041
H  -0.74063842  3.43309984 -0.54319314
H   0.40041478 -3.27231207  1.08279880
H  -3.57469336 -0.17327204  0.79111977
H   2.09100803 -2.34360304  0.59287449
H   3.12662776 -1.20713749 -0.08981065
H  -1.75023953 -3.87491121  1.99387821
H  -3.74472109 -2.51679363  1.71990748
H  -1.96724097  1.58969412  0.18676468
O  -3.45727984  2.62057600 -0.04531650
H  -3.54726092  3.58446226 -0.29597072
H  -3.75430743  2.04827795 -0.80967883
O   4.88611134 -1.54035082 -0.90246896
H   5.64571019 -2.18207779 -1.00827746
H   5.19866191 -0.73369923 -0.40084604
O   2.70661791 -4.34926715  0.07212063
H   2.01101883 -4.19416776 -0.62936763
H   3.44709190 -4.90261450 -0.30933050
O  -3.36053244 -0.16898623  4.02238609
H  -2.38847129 -0.09032574  3.80123039
H  -3.90475527  0.19822226  3.26807859
O   3.45049079 -0.91218748  2.98535027
H   2.83934720 -0.47495308  3.64514561
H   4.26369198 -0.34448757  2.85720718
O   0.85830482 -3.92841973 -1.89758352
H   0.79956802 -3.01850119 -2.30819039
H  -0.02267377 -4.16729178 -1.48915152
O  -1.13441912  5.13109121 -3.47021631
H  -1.97597853  5.10603628 -2.93063358
H  -0.98947207  6.05706415 -3.81887678
O  -4.71676413  1.64255629  2.07734283
H  -4.57281176  2.17670164  1.24429651
H  -4.44268386  2.18412123  2.87206753
O   3.54242023 -0.90078726 -3.52240137
H   3.76678630 -0.04206123 -3.98310618
H   3.96072682 -0.91095581 -2.61415199
O  -0.81612174 -5.92851474 -0.10021834
H  -1.74151150 -6.23836985 -0.31849269
H  -0.58583848 -6.19904008  0.83454653
O  -0.59186808 -0.27630033  3.99982764
H  -0.59842745 -0.89668694  4.78409596
H   0.30914434  0.15000782  3.91959037
O  -3.92098204  0.89608679 -2.10884480
H  -3.72537009 -0.07201138 -2.26544098
H  -4.11423651  1.34265051 -2.98247723
O  -0.48278205  6.31877813  0.43118687
H   0.23809512  6.82431326 -0.04291276
H  -0.89523760  6.90306101  1.13010975
O   0.70938953 -1.64787235 -3.50470118
H   1.55542239 -1.13953867 -3.34399656
H   0.00293954 -1.02283325 -3.83674673
O   3.91116162  3.51144133 -5.02952913
H   4.47946723  3.87274370 -5.76877741
H   3.02798136  3.22236261 -5.39888815
O  -2.08824793 -5.67099049  3.97482212
H  -2.07371871 -6.40543398  3.29630788
H  -3.02637259 -5.52644005  4.28950795
