78
N16 tacrine microhydration cluster; source_frame=6553; time_ps=6566.106000; n_waters=16; atoms=78; max_selected_waterO_min_distance_A=3.712857; selection=nearest_16_water_oxygens_to_tacrine_heavy_atoms
N  -0.51915042 -0.84358908 -1.03728882
N   1.11696466  1.37933086  2.02701362
C   3.51371129 -0.09912659 -1.43321435
C   2.73965772  0.75657724 -0.34896580
C   2.74976571 -0.17547585 -2.75261370
C   1.27183755  0.40825198 -0.15142934
C   1.31489309 -0.76990487 -2.47474019
C   0.66884740 -0.26331355 -1.19934289
C   0.49412568  0.64465593  0.99034484
C  -0.87693564  0.29281209  1.02584537
C  -1.37959067 -0.51153685 -0.01888291
C  -1.73761431  0.53627084  2.16340335
C  -2.73558728 -0.92235448  0.00598129
C  -3.09985987  0.16865848  2.12720378
C  -3.52106492 -0.60125615  1.07668575
H   4.46601327  0.38117002 -1.65801636
H   3.62302717 -1.15568186 -1.18859021
H   3.20582803  0.67854141  0.63322337
H   2.80397924  1.79899524 -0.66094033
H   2.58532365  0.81449912 -3.17806451
H   3.33746942 -0.75439812 -3.46504132
H   0.69030507 -0.64832617 -3.35972993
H   1.56806405 -1.80679490 -2.25368897
H  -1.32966391  0.95990203  3.06922515
H  -3.04859559 -1.54743601 -0.81724373
H   0.70334466  2.10243295  2.59810146
H   2.05421480  1.65693806  1.77285465
H  -3.84144942  0.33030246  2.89552482
H  -4.52938573 -0.97008492  0.95983203
H  -0.72274939 -1.48611142 -1.78949372
O  -1.52715842 -2.29122616 -2.95157401
H  -2.45257966 -2.23890378 -3.32688443
H  -1.32685343 -3.23510815 -2.68896310
O   0.32042535  3.47560643  3.81261714
H   1.12295659  4.06420432  3.71516689
H   0.28193029  3.11617874  4.74499591
O   1.03653177  4.01659189  0.56675418
H   0.12985738  4.16735755  0.96072276
H   1.73123296  4.40997843  1.16894801
O   3.80896123  2.56161140  2.89717563
H   3.47975572  3.26481222  3.52735980
H   4.69327005  2.83850764  2.52124294
O  -0.79871527 -0.31324126  5.07069381
H   0.06308015 -0.79817416  5.21951946
H  -1.48232047 -0.64056470  5.72303089
O  -0.20247809 -2.36912133  2.84049495
H   0.74626764 -2.65360905  2.97815021
H  -0.29062144 -1.39370801  3.04248317
O  -3.59341876  3.28063343  3.11569866
H  -2.83836571  3.92564951  3.23338111
H  -4.16103474  3.56902228  2.34456714
O   3.83249505 -3.47801758 -2.87738434
H   4.75313886 -3.13873841 -3.07052914
H   3.73269304 -3.62981202 -1.89402405
O  -1.93893592  3.62461887  0.56775459
H  -1.69396369  3.41979943 -0.37989442
H  -2.81269137  3.19067500  0.78740104
O  -0.43862979  0.33381055 -5.30420272
H  -0.61463706  0.63318895 -6.24196259
H  -0.36529795  1.13286565 -4.70743386
O  -0.53595320  2.22422288 -3.44508139
H   0.23153814  2.56174968 -2.90007369
H  -1.36631171  2.22506927 -2.88785235
O  -4.72772042 -3.90728642  1.81519206
H  -4.73884837 -4.84418561  1.46577056
H  -5.30595318 -3.32973553  1.23892577
O   4.17478307 -0.19220187  3.13983425
H   3.90022024  0.74188159  2.91157325
H   3.43924268 -0.82461430  2.89686378
O  -7.05977766 -1.50135209  1.04143699
H  -7.53643862 -2.34320428  0.78829749
H  -7.26528160 -1.27539040  1.99365028
O  -4.98101203  2.97290347  0.70283683
H  -5.77276770  2.41284297  0.94667037
H  -5.18828980  3.50314198 -0.11928479
O  -6.03914611 -1.13209654 -1.67562882
H  -6.31293432 -1.67300440 -0.88035599
H  -6.84842459 -0.71622254 -2.09049813
