78
N16 tacrine microhydration cluster; source_frame=3528; time_ps=3535.056000; n_waters=16; atoms=78; max_selected_waterO_min_distance_A=3.922924; selection=nearest_16_water_oxygens_to_tacrine_heavy_atoms
N   1.25316044 -0.72809188 -0.05496861
N  -2.40145019  1.25840982 -0.12555386
C  -1.85274318 -2.62029521  1.86253856
C  -2.30415824 -1.46860663  0.91284822
C  -0.84703163 -3.50944964  1.21322988
C  -1.07928565 -0.70261733  0.43105291
C   0.52065322 -2.76689974  1.03641151
C   0.17631241 -1.35604922  0.45387576
C  -1.14732650  0.61495431 -0.01745488
C   0.07649657  1.27192911 -0.46204282
C   1.28224894  0.53814920 -0.51409485
C   0.05516192  2.66825326 -0.89036204
C   2.49941298  1.12464078 -1.04241182
C   1.27675053  3.21015199 -1.31291725
C   2.49179837  2.46552118 -1.49015071
H  -1.37961582 -2.24936072  2.77174638
H  -2.72371105 -3.25654475  2.01970218
H  -2.88171199 -1.86816088  0.07924817
H  -2.90788463 -0.81836955  1.54594014
H  -0.60741142 -4.36194674  1.84878515
H  -1.27486137 -4.00255458  0.34035610
H   1.00389620 -2.64067332  2.00524734
H   1.30556723 -3.29396407  0.49399684
H  -0.83558467  3.27700265 -0.84143974
H   3.41879484  0.56857332 -1.15161492
H  -2.54732326  2.00611909 -0.78869273
H  -3.29903606  0.87012704  0.12678836
H   1.43507620  4.20665010 -1.69804694
H   3.34838721  2.96774896 -1.91491415
H   2.06814000 -1.31607596 -0.15587737
O   3.90251228 -0.58842436  1.35051606
H   3.90555712 -1.28926150  2.06383155
H   3.45192191  0.23535760  1.69453739
O  -3.78543666  3.40773424 -1.77703859
H  -4.36367229  2.64490255 -2.06640126
H  -4.36166480  4.16298707 -1.46470071
O  -2.51172164  1.05925210 -3.40710749
H  -2.81967262  1.19770273 -4.34838225
H  -2.62772754  1.90745099 -2.89028694
O   1.33553549 -2.71225707 -2.72862686
H   2.26441666 -2.41290633 -2.51052286
H   0.81715962 -1.94381682 -3.10384251
O   2.19634339  4.86977990 -4.05950010
H   2.83276126  4.21812089 -4.47219014
H   2.60362860  5.78305944 -4.06587184
O  -4.29967693  2.31343587  2.42923759
H  -3.77492622  2.99048169  2.94522785
H  -4.80014900  2.76974614  1.69350026
O   3.72090980 -1.73141257 -2.36320366
H   3.56764647 -1.22554652 -3.21209098
H   4.67847749 -1.64097850 -2.08955051
O   0.30420252  3.23894151  2.49162982
H   0.82225606  4.08608564  2.37344335
H   0.92851206  2.49839052  2.74026750
O  -1.76019195  1.48867639  3.32172178
H  -2.63093379  1.52652391  2.83144019
H  -1.07400325  2.01900323  2.82382701
O   5.69664809  1.62711652  0.43910192
H   5.28845379  0.71491464  0.47468160
H   5.53891071  2.09697278  1.30763791
O   2.72948548  1.40953286  2.64423631
H   3.66694018  1.68132718  2.86173890
H   2.29721734  1.02240403  3.45865320
O  -1.67298606 -7.13570515  1.53441642
H  -1.39936832 -6.97236172  0.58654903
H  -2.56581786 -7.58579890  1.55076717
O  -3.77936939 -1.22461669 -2.56757213
H  -4.56135085 -0.83148734 -2.08388402
H  -3.28208164 -0.49870650 -3.04271390
O  -0.34299520 -4.68949477 -2.33253218
H   0.36829135 -4.04770819 -2.61920609
H  -1.23974326 -4.25712077 -2.42685355
O   1.92624089  6.88992532 -0.33698751
H   2.70839974  7.11155637 -0.91931678
H   1.08015296  7.15125306 -0.80157711
O   2.10644862 -3.04768149  4.61352609
H   2.65350005 -2.76137892  3.82690976
H   2.42635295 -3.93878047  4.93540166
