78
N16 tacrine microhydration cluster; source_frame=8267; time_ps=8283.534000; n_waters=16; atoms=78; max_selected_waterO_min_distance_A=3.619487; selection=nearest_16_water_oxygens_to_tacrine_heavy_atoms
N   0.32699070  1.03171501  0.98232331
N  -0.85523071 -1.93763580 -1.58738670
C   2.15475616 -2.65595856  1.35111680
C   0.80944214 -2.69139233  0.67028775
C   2.41444454 -1.72955170  2.49281182
C   0.35624180 -1.27265110  0.37201991
C   1.35646114 -0.53527107  2.53908172
C   0.70274315 -0.25598469  1.22027555
C  -0.45005360 -0.90092506 -0.77043161
C  -0.77881470  0.41837606 -1.01558170
C  -0.39658966  1.43151388 -0.10057817
C  -1.59935226  0.85049829 -2.12296901
C  -0.68354836  2.83652887 -0.33299432
C  -1.90487709  2.20557127 -2.29708729
C  -1.45261326  3.20516691 -1.40088806
H   2.49172173 -3.65396919  1.63134685
H   2.79858456 -2.29233303  0.55026593
H   0.99726448 -3.33938541 -0.18582425
H   0.08508739 -3.22186508  1.28835597
H   2.44123039 -2.21332302  3.46920743
H   3.41079674 -1.28877296  2.45970597
H   0.60329113 -0.66523209  3.31622186
H   1.84405098  0.35541544  2.93535676
H  -1.84655609  0.13401661 -2.89234815
H  -0.33348408  3.57675180  0.37122502
H  -0.88204422 -2.79472771 -1.05374441
H  -1.57566109 -1.76943913 -2.27498541
H  -2.35586395  2.56623373 -3.20973907
H  -1.82447090  4.21646843 -1.47430835
H   0.78830013  1.75260077  1.51862254
O   1.55497322  2.97999964  2.75593295
H   1.51230297  2.87906418  3.74991097
H   2.50060043  3.14963303  2.47842040
O  -4.14608421 -0.79961815 -2.75593505
H  -4.21595993 -1.55133286 -2.10015903
H  -4.56120529  0.02241478 -2.36614594
O  -2.12247696 -1.58404388 -4.51419494
H  -1.96842041 -0.96051922 -5.28066978
H  -2.96869125 -1.33226242 -4.04459116
O  -0.05770340 -5.03073158 -2.38204679
H  -0.57950153 -5.46675339 -1.64882669
H  -0.66313400 -4.84196224 -3.15523527
O   4.36313257  0.03317699  4.53640046
H   4.62643871  0.98071728  4.71761003
H   5.16475687 -0.55815544  4.62428441
O  -4.45048943  0.83813963 -0.33550439
H  -5.43471661  0.80153236 -0.50858459
H  -4.24347916  1.62430010  0.24681678
O  -0.73595181  6.42895410 -2.28503237
H  -1.44801273  6.94065378 -1.80426917
H  -0.28503170  7.02731023 -2.94733295
O  -3.01635971 -3.17668190  0.86246552
H  -2.33474483 -3.66769066  1.40497127
H  -3.48853245 -2.51269665  1.44227281
O  -0.23011913 -0.97056522  5.67887940
H  -0.09679451 -1.94728794  5.84692063
H  -0.96851006 -0.84406319  5.01647725
O  -1.58279457  2.17472944  3.74219861
H  -0.59078732  2.29810867  3.71571984
H  -2.00635376  2.97131262  4.17353787
O  -2.13448277 -0.70288410  3.31769099
H  -1.93919697  0.26635132  3.16786733
H  -2.93942585 -0.96674480  2.78623691
O   4.91328011 -4.83400383  1.98866906
H   5.24287424 -3.91410389  1.77617660
H   4.63609800 -4.87528839  2.94859900
O  -1.23147526 -4.77986469  2.75308194
H  -1.74851360 -4.31440773  3.47142854
H  -0.29434147 -4.93635788  3.06499448
O   2.10683212 -3.42248669 -2.99939022
H   1.32366714 -3.99987736 -2.76857815
H   1.80125294 -2.65720119 -3.56592289
O   1.81618843  4.42262564 -2.39431605
H   1.36007271  5.29480133 -2.57114444
H   2.78950081  4.50613198 -2.60806797
O  -2.05160561 -4.27168121 -4.08170149
H  -2.00087681 -3.31578865 -4.37100268
H  -3.00571480 -4.51835098 -3.91190813
