78
N16 tacrine microhydration cluster; source_frame=2016; time_ps=2020.032000; n_waters=16; atoms=78; max_selected_waterO_min_distance_A=3.775773; selection=nearest_16_water_oxygens_to_tacrine_heavy_atoms
N   0.73599777 -1.25190996 -0.20388062
N  -1.37795725  2.27171733  0.36364465
C  -3.47798815 -1.55635093  0.16497474
C  -2.81648364 -0.15705369 -0.11690469
C  -2.69722428 -2.63011192 -0.64038332
C  -1.33801641 -0.11620591  0.01793139
C  -1.17202320 -2.68999837 -0.32741232
C  -0.60179462 -1.30450176 -0.24750347
C  -0.63368740  1.08696772  0.22158890
C   0.79141960  1.13461425  0.06177979
C   1.50376854 -0.11535333 -0.03401561
C   1.59629450  2.30265929  0.22012727
C   2.88320551 -0.19394134  0.01592414
C   2.98449478  2.22858931  0.37307148
C   3.61999426  0.99087931  0.13105767
H  -3.41037121 -1.96845125  1.17180197
H  -4.55029526 -1.56535648 -0.03041167
H  -3.15235176  0.26253773 -1.06518514
H  -3.28694143  0.57572438  0.53869091
H  -3.21668615 -3.58699797 -0.58911211
H  -2.83041921 -2.40127443 -1.69773514
H  -1.00557342 -3.24654172  0.59489666
H  -0.75471725 -3.31766008 -1.11481102
H   1.13994799  3.25663211  0.43940704
H   3.33392773 -1.17434524 -0.02943404
H  -1.05403962  3.21179797  0.18636923
H  -2.33595934  2.16292788  0.66447108
H   3.47922525  3.08247592  0.81184249
H   4.67996416  0.81322791  0.23737328
H   1.18038187 -2.15872119 -0.22165782
O   1.97599325 -3.55418084 -0.26616688
H   2.67529783 -3.81933473 -0.92999418
H   2.01953230 -4.16381906  0.52531629
O  -0.27515235  4.96108653 -0.13352258
H   0.61413536  5.14278533  0.28618233
H  -0.72506180  5.82763983 -0.34954603
O   3.51388083 -1.25351261 -2.71952279
H   2.51971207 -1.30419896 -2.62434132
H   3.79935894 -0.29517673 -2.72924454
O   6.54124842  1.29868056 -1.37109501
H   7.41063700  0.80609919 -1.41017230
H   6.68473349  2.19537093 -0.95233519
O   4.53681765  1.29287936 -3.06602223
H   4.89367781  1.93679072 -3.74280102
H   5.18371878  1.21391322 -2.30754812
O  -1.08139005 -0.50954984  3.41573064
H  -1.52305188 -1.02525924  4.14988225
H  -0.69851842 -1.14528917  2.74547343
O  -4.78257343  2.93600108 -0.19202502
H  -5.41347613  3.71168830 -0.20847614
H  -5.28864398  2.09102179 -0.36495085
O   0.63940058  1.76223590  3.57773106
H   0.05824409  0.95485236  3.47580354
H   1.57359085  1.47578551  3.79041378
O  -3.06002035  3.18153216 -2.62007220
H  -2.29960945  3.82406165 -2.71458085
H  -3.50331815  3.31772353 -1.73410447
O  -0.30983510 -1.19992565 -3.78017409
H  -1.19292321 -1.66558288 -3.83778079
H  -0.44240942 -0.21696447 -3.90749867
O   0.60572395 -2.90690492  3.00344484
H   0.03311119 -3.32366012  3.70944040
H   1.12066708 -3.62015961  2.52794271
O   4.43460569 -2.63251708  2.18297796
H   3.64763794 -2.21493839  2.63719087
H   5.19266901 -1.98063491  2.16326486
O  -4.89307042 -3.55190061 -3.40464814
H  -4.01959493 -3.38323448 -3.86136754
H  -5.49409773 -4.06799291 -4.01490672
O  -6.45024862  0.35710217 -0.81330259
H  -6.00026932 -0.05396818 -1.60610778
H  -7.43202820  0.43093182 -0.98839767
O  -3.52273687  0.57170512  3.46932261
H  -4.00645729 -0.23693965  3.80414908
H  -2.55683603  0.35043551  3.33487742
O   6.22974882  4.02003981 -0.34490819
H   7.21056376  4.21349551 -0.32091076
H   5.77560339  4.67457892 -0.94933541
