78
N16 tacrine microhydration cluster; source_frame=5948; time_ps=5959.896000; n_waters=16; atoms=78; max_selected_waterO_min_distance_A=3.689878; selection=nearest_16_water_oxygens_to_tacrine_heavy_atoms
N   0.20900374  0.25611616 -1.34534098
N  -0.63900323 -0.60383081  2.54511474
C  -1.64921743  3.34826113  0.77234720
C  -1.07123930  2.17478205  1.59914134
C  -0.64151139  3.80835367 -0.34655787
C  -0.48920590  1.01585544  0.75659917
C  -0.32685954  2.70278240 -1.25611569
C  -0.15489740  1.27969814 -0.56401469
C  -0.30004448 -0.26166081  1.23345588
C   0.20652579 -1.32986795  0.35807441
C   0.53304975 -1.02176463 -1.01939608
C   0.52044510 -2.68710446  0.75579522
C   1.17198884 -1.90933370 -1.90511967
C   1.21172409 -3.55468964 -0.12501790
C   1.41924136 -3.21759700 -1.45896508
H  -2.63802309  3.10584665  0.38299058
H  -1.83658571  4.18045879  1.45090507
H  -0.23142833  2.55187870  2.18276428
H  -1.80133075  1.81292129  2.32310413
H  -1.10160215  4.54178167 -1.00875117
H   0.22996413  4.36973406 -0.00968672
H  -1.02507979  2.79257799 -2.08829667
H   0.62755471  2.90417600 -1.74256636
H   0.60570621 -2.94960283  1.79993366
H   1.40530520 -1.61136698 -2.91664292
H  -0.68460066  0.19359482  3.16328357
H  -0.23903234 -1.48024558  2.84846328
H   1.54165011 -4.54889416  0.13786195
H   1.95928078 -3.87970900 -2.11954476
H   0.33558970  0.48657652 -2.32051446
O   0.53294527  0.42527553 -4.02359893
H  -0.36409862  0.34842400 -4.45880701
H   1.24838089  0.27302898 -4.70548798
O   3.80943578 -3.00927999  1.21984981
H   4.27776544 -2.28513577  0.71360610
H   2.92476612 -2.67223122  1.54196380
O   1.39343389 -2.34178593  4.09209274
H   2.01218267 -3.12737443  4.09285949
H   0.64561089 -2.50587680  4.73539279
O  -3.74358112 -0.64533820  2.11740707
H  -4.67343838 -0.39081039  2.38307880
H  -3.31596262 -1.16483381  2.85718177
O  -2.99180729 -1.92509582  4.36928676
H  -3.72021849 -2.20865729  4.99299358
H  -2.34705526 -2.67931154  4.24497436
O  -4.73998386  4.55269764  1.37554572
H  -5.30148584  5.33948682  1.63182281
H  -4.53300173  4.01133702  2.19046138
O   2.01718485  0.31216804  4.47700141
H   1.60620543 -0.56419267  4.22582839
H   1.29488014  0.98258177  4.64676975
O  -0.88984878  7.17217848 -1.03886773
H  -0.17376883  6.77319644 -1.61161830
H  -1.27202899  7.97601865 -1.49469639
O   4.55323761 -4.70239045 -1.76010205
H   4.77670114 -4.18635871 -0.93319537
H   4.72041862 -5.67541864 -1.60114648
O   0.27747374 -5.57103469 -3.85386564
H  -0.38307983 -5.90554645 -4.52600457
H   0.86407231 -6.32534482 -3.55904676
O  -1.88575489 -4.27094962 -2.20161273
H  -1.23262555 -4.80682494 -2.73664548
H  -1.93791349 -3.34330370 -2.57141377
O   0.87770670  5.58080981 -3.07305409
H   0.17734723  5.18776391 -3.66888286
H   1.52279823  4.86681054 -2.80091025
O   0.28957193  2.21390162  4.94032501
H  -0.51165719  2.54431222  5.43918441
H   1.02581399  2.88715122  5.00875400
O   0.90949453 -5.28971126  3.25610660
H   1.67129464 -4.97136619  3.82030319
H   1.14032202 -6.17548015  2.85345004
O   2.93566637  3.71973441 -2.53865554
H   2.84383791  3.18612502 -3.37938644
H   3.24306386  3.12327907 -1.79720570
O  -3.00874931 -3.39871242 -0.05265881
H  -3.07065279 -2.42503884 -0.27204014
H  -2.51307923 -3.87339761 -0.77997233
