78
N16 tacrine microhydration cluster; source_frame=9073; time_ps=9091.146000; n_waters=16; atoms=78; max_selected_waterO_min_distance_A=3.901647; selection=nearest_16_water_oxygens_to_tacrine_heavy_atoms
N  -0.12599657  0.67819476 -1.31311075
N   0.24778821 -1.26725471  2.34537156
C  -3.76000426  0.21482825  0.86996897
C  -2.48742292 -0.50162315  1.42821940
C  -3.77231524  0.35342932 -0.62365929
C  -1.16679285 -0.12517524  0.74792584
C  -2.51405284  1.13308835 -1.12659017
C  -1.24802361  0.50419378 -0.51548974
C   0.11758664 -0.43547928  1.24329336
C   1.31341913 -0.32023549  0.37268718
C   1.15358427  0.24629927 -0.95535723
C   2.68075683 -0.62106037  0.75263341
C   2.28835132  0.42842650 -1.77733366
C   3.73532321 -0.40024018 -0.09051863
C   3.53779867  0.11260819 -1.35804025
H  -4.64199874 -0.36092687  1.15048941
H  -3.78427265  1.16509604  1.40335615
H  -2.43762205 -0.31452751  2.50088676
H  -2.60199974 -1.56347561  1.21040829
H  -3.83874462 -0.64399695 -1.05820314
H  -4.67840383  0.86501408 -0.94829003
H  -2.46300075  1.14068341 -2.21536724
H  -2.59824226  2.18267393 -0.84484092
H   2.91183307 -1.00708866  1.73446139
H   2.18883874  0.84969282 -2.76679365
H  -0.48208234 -1.19411373  3.03966196
H   1.17901971 -1.61211705  2.52970298
H   4.72491553 -0.47358096  0.33577784
H   4.39341643  0.37184477 -1.96394054
H  -0.23607514  1.05613995 -2.24323980
O  -0.65793273 -0.61080754  5.22378834
H   0.22678926 -0.20185530  5.44745119
H  -0.73330305 -1.50459391  5.66590293
O   5.85113313  2.05241299 -0.55497185
H   6.51372030  1.31411481 -0.42890159
H   5.62365510  2.45140648  0.33331760
O  -0.12836668  2.63831997 -3.76045696
H  -0.17973897  3.57242584 -3.40717546
H  -0.90417395  2.46867561 -4.36819355
O   3.50743701  3.34486866 -2.31843893
H   2.55722740  3.35814810 -2.00711099
H   4.08377483  2.93326759 -1.61245004
O   2.67347839 -3.18277466  3.24264123
H   2.91622379 -2.81543100  4.14049061
H   3.49409273 -3.24352205  2.67439659
O  -5.52015517 -0.05697072 -3.30356828
H  -6.21308324 -0.44056821 -2.69307415
H  -4.92842767 -0.79018235 -3.63861982
O  -0.82181308 -1.33524698 -3.80234996
H  -1.59012017 -0.80522239 -4.16120712
H  -0.10094974 -1.38710731 -4.49348394
O   1.31555488  3.19270706  0.72298225
H   1.39381959  2.86258507  1.66367044
H   0.42661526  3.63311291  0.59716709
O  -2.82039166  1.16784072  4.43527587
H  -2.21825517  0.37022257  4.40010568
H  -2.26874877  2.00189829  4.44147178
O   6.30314233 -1.99128626 -1.95764915
H   6.73035886 -2.06166113 -2.85905496
H   6.60333707 -2.75488673 -1.38598673
O  -5.53276894  1.51966667  3.64282497
H  -5.96049545  2.29238224  4.11182495
H  -4.61124871  1.37877226  4.00469418
O  -6.83880923  2.16492462  1.19290276
H  -6.28310487  1.69975448  1.88196679
H  -6.55818579  3.12263966  1.12940152
O   2.21302440  0.45033479  5.02993139
H   2.39702108  1.14274478  5.72758039
H   2.80046012 -0.34385085  5.18545779
O  -5.43048785 -1.19106507  3.93314799
H  -6.34392593 -1.57180679  4.07690736
H  -5.50941751 -0.24564886  3.61698659
O  -0.36039135 -4.78115630  0.90482684
H   0.32827404 -5.49559546  0.78106590
H   0.06868889 -3.96977556  1.30175408
O   4.35808303 -2.62955022 -4.00955860
H   4.37344053 -3.62779558 -4.06674663
H   4.88821008 -2.33300364 -3.21518795
