78
N16 tacrine microhydration cluster; source_frame=3327; time_ps=3333.654000; n_waters=16; atoms=78; max_selected_waterO_min_distance_A=3.909758; selection=nearest_16_water_oxygens_to_tacrine_heavy_atoms
N  -0.81706122 -1.08955478 -0.59811211
N   1.54111763  1.92756916  1.15556622
C   2.63408442 -2.24266028  1.39495277
C   2.23579689 -0.79127716  1.60221100
C   1.45392176 -3.14603185  1.61943626
C   1.02632304 -0.38060688  0.73692799
C   0.38790020 -2.82856845  0.62230968
C   0.18445035 -1.38235211  0.28673077
C   0.73916586  0.94362903  0.48131084
C  -0.42384366  1.32877971 -0.35184765
C  -1.14544828  0.22226644 -0.91252518
C  -0.93196562  2.64686013 -0.66734314
C  -2.21115581  0.35816515 -1.77508879
C  -2.04275803  2.76597429 -1.48303890
C  -2.63052753  1.66780759 -2.11148977
H   2.87280770 -2.34087109  0.33595943
H   3.49690839 -2.52267884  1.99929047
H   2.11316868 -0.64781570  2.67574787
H   3.06817122 -0.10554969  1.44399738
H   1.72711297 -4.20006417  1.66926670
H   1.00627478 -2.80504798  2.55294800
H   0.63530012 -3.36660146 -0.29279327
H  -0.58757050 -3.24760102  0.86922836
H  -0.46614684  3.57037116 -0.35663319
H  -2.72309760 -0.51774275 -2.14536095
H   2.01957341  1.63829017  1.99669456
H   1.92986318  2.67191077  0.59437752
H  -2.49683885  3.74126435 -1.57801533
H  -3.47584490  1.83405519 -2.76279640
H  -1.37765447 -1.83565759 -0.98433208
O  -2.55984126 -2.01611256  1.74919128
H  -2.73112689 -2.40556907  0.84421349
H  -3.35418116 -1.48158335  2.03781319
O   2.59000911  1.74347205  4.06404114
H   2.99597515  2.64171518  4.23241806
H   3.19191135  1.03228182  4.42725182
O   2.54042043  4.23823119 -0.66652584
H   3.37465157  4.70260406 -0.96387482
H   1.76787914  4.55647994 -1.21597862
O   0.42405333  4.97841264 -2.36438704
H   0.47840692  4.13164807 -2.89357090
H  -0.28775965  5.56642295 -2.74853086
O   3.21189465  0.25776506 -1.49434566
H   2.47529115  0.88917179 -1.25197983
H   4.09178700  0.65812356 -1.23841190
O  -3.03527723 -3.53870200 -0.43867874
H  -3.90364872 -3.95454787 -0.70886993
H  -2.28471611 -4.16210317 -0.65783310
O  -3.02838217  1.72244216  1.77803135
H  -3.68204556  0.97337604  1.88584709
H  -3.10164748  2.09839130  0.85429192
O  -5.39892326 -0.13661205 -2.83857107
H  -5.06520210 -1.07905959 -2.81800652
H  -5.60737930  0.16355241 -1.90773964
O  -3.30207334  5.04372335  0.98688126
H  -3.10464607  4.87494016  1.95255947
H  -3.98857485  4.39031173  0.66786861
O  -1.89276920 -3.44229125 -3.12621737
H  -1.65937261 -4.09034728 -2.40126944
H  -1.91431414 -3.91886901 -4.00508547
O  -1.32201527 -2.71518897  3.94953823
H  -1.11951949 -1.90307140  4.49676800
H  -1.74288009 -2.43854498  3.08562851
O  -5.24217592  3.13600624  0.28739643
H  -5.46440493  3.41091526  1.22283173
H  -5.48613773  2.17523617  0.15547466
O   4.97274651  3.30789078  1.52128601
H   4.72095837  3.84658695  2.32528305
H   5.92479672  3.49518681  1.27937698
O  -1.35865061 -5.55303239 -1.24794292
H  -1.02169780 -5.81446647 -2.15244007
H  -1.42772470 -6.36626243 -0.67011452
O  -4.43197523  4.04193545 -4.62769699
H  -4.87664782  4.25195242 -3.75697374
H  -3.50684439  4.42157937 -4.62960815
O   5.53463902 -4.63364267  2.47021580
H   5.57318987 -5.51500749  1.99935436
H   5.10335745 -4.75215339  3.36461639
