78
N16 tacrine microhydration cluster; source_frame=8771; time_ps=8788.542000; n_waters=16; atoms=78; max_selected_waterO_min_distance_A=3.723401; selection=nearest_16_water_oxygens_to_tacrine_heavy_atoms
N   0.84754693 -1.17510147 -0.44314020
N  -1.53563202  2.12625008  0.51274354
C  -3.29918635 -1.71849413  0.07212598
C  -2.83282292 -0.29702778 -0.17953842
C  -2.46724928 -2.68110437 -0.88570159
C  -1.26512898 -0.22979183 -0.00840157
C  -0.99190307 -2.76106615 -0.52748602
C  -0.47305728 -1.33128710 -0.28364724
C  -0.68905354  1.05267220  0.26146633
C   0.70499250  1.12986021  0.23992998
C   1.42632734 -0.02791948 -0.13954848
C   1.43642246  2.35326033  0.51618678
C   2.84866559  0.02665739 -0.07598942
C   2.79640066  2.34032373  0.57823044
C   3.49367797  1.19276838  0.36276991
H  -3.21997512 -2.11451216  1.08454663
H  -4.33667958 -1.95582933 -0.16320175
H  -3.22921289  0.01985531 -1.14419382
H  -3.37106431  0.44149761  0.41457993
H  -2.86848629 -3.69297380 -0.82888525
H  -2.55753863 -2.27006788 -1.89118534
H  -0.86591542 -3.40163965  0.34537846
H  -0.49250770 -3.20889349 -1.38664537
H   0.94567122  3.23833160  0.89329821
H   3.44544947 -0.86023111 -0.22986573
H  -1.31237352  3.06720428  0.22143418
H  -2.45216215  1.79767685  0.24420697
H   3.38041698  3.12977390  1.02777774
H   4.54969656  1.18296413  0.58888561
H   1.44745957 -1.96285219 -0.64227289
O   2.03790798 -3.73134298 -0.26322168
H   1.68560793 -4.20832033 -1.06844085
H   3.02681270 -3.86661024 -0.20182055
O   3.82455792  1.26276426  3.27669055
H   3.41406789  0.40731936  2.96091897
H   4.81039014  1.24072390  3.11040885
O   0.88823822 -1.70485563 -3.41461655
H   1.74987736 -2.20101042 -3.52142533
H   1.07953712 -0.74619694 -3.20395557
O  -1.73808632 -5.23668261 -2.63420891
H  -2.68148813 -5.40682192 -2.34952414
H  -1.69503460 -4.38199015 -3.15155536
O  -2.27498779  3.03357272 -2.52961337
H  -1.60701880  3.72901492 -2.79452437
H  -3.12897549  3.18491917 -3.02740746
O   2.48032966 -1.09779520  2.99882180
H   2.19505014 -2.01697989  2.72731549
H   1.72296646 -0.63669462  3.46119315
O  -3.09191642  4.99180214 -0.04130548
H  -4.03565345  5.30897300 -0.13491886
H  -2.96378050  4.16190534 -0.58430880
O  -4.66255794  2.48103361 -0.58985060
H  -5.25716052  1.72884016 -0.87384551
H  -4.89486680  3.30370336 -1.10874050
O  -5.19985471 -1.01575584  2.89021403
H  -6.12166438 -1.21839638  2.55975491
H  -4.72272000 -1.87102385  3.09235150
O  -0.58940915  5.45139854  1.02738768
H  -0.70564470  6.20855807  1.67019278
H  -1.44823275  5.29290442  0.54025156
O  -4.20510039 -5.66498346 -1.67085331
H  -4.60962329 -6.50686617 -2.02805537
H  -4.54188762 -5.50061197 -0.74373048
O  -5.35079942 -4.59020395  0.82596404
H  -5.14543424 -4.17226763  1.71092421
H  -5.92888770 -3.97314615  0.29205925
O   6.92409625  2.29793196  1.09539038
H   6.91852918  3.06219749  1.74026829
H   6.71167150  1.45018225  1.58138997
O  -5.25330052  1.44199781  2.00745351
H  -5.10938535  0.46775513  2.18106133
H  -5.12867246  1.62888985  1.03301055
O  -1.12200496 -3.18402929 -4.29301244
H  -0.50831870 -2.74207373 -3.63874578
H  -1.30476353 -2.55988188 -5.05264383
O   4.07497039  5.63868945  1.74001986
H   4.58911147  6.42086701  1.38808638
H   3.38228526  5.95869462  2.38638169
