78
N16 tacrine microhydration cluster; source_frame=3730; time_ps=3737.460000; n_waters=16; atoms=78; max_selected_waterO_min_distance_A=3.538497; selection=nearest_16_water_oxygens_to_tacrine_heavy_atoms
N   0.93644355  0.60827936 -0.93808013
N  -1.57897641 -1.39377867  1.63571948
C   2.33648561 -0.16608798  2.84375304
C   1.10306953 -1.04333769  2.41122812
C   3.44245814 -0.27795970  1.75594205
C   0.55560420 -0.56237017  1.10565824
C   2.90905331  0.32011236  0.42993790
C   1.42701505  0.03721917  0.17789334
C  -0.77726151 -0.66870867  0.74260754
C  -1.27302243 -0.12993514 -0.49885660
C  -0.39401414  0.59475053 -1.31515890
C  -2.69922806 -0.02737509 -0.86224776
C  -0.82151820  1.15560830 -2.49880534
C  -3.06536557  0.50593961 -2.06386262
C  -2.10074307  1.04764379 -2.92572838
H   2.06864808  0.87443364  3.02727050
H   2.62314771 -0.61167895  3.79631490
H   1.36768745 -2.10041892  2.43683547
H   0.29283975 -0.91616999  3.12918061
H   4.42377446  0.11225618  2.02584953
H   3.63939021 -1.34525954  1.65499348
H   3.04893134  1.39899553  0.49736470
H   3.62380241  0.10203279 -0.36358291
H  -3.45652844 -0.48125064 -0.24023932
H  -0.09975650  1.64338125 -3.13719254
H  -1.25414778 -1.98208796  2.38969464
H  -2.58870389 -1.39414298  1.61224717
H  -4.09154679  0.52965940 -2.39970427
H  -2.30746247  1.40724672 -3.92290026
H   1.60462974  1.09216798 -1.52072793
O   2.93876193  1.65595926 -2.81983381
H   3.92281817  1.72705091 -2.65680152
H   2.72571562  0.74883951 -3.18280059
O  -1.63033082 -3.46587264  3.72868103
H  -1.36121346 -2.97307860  4.55616516
H  -1.36131026 -4.42557418  3.80991978
O  -4.22469403  0.30744088  1.84283990
H  -3.95350148  1.20713533  1.50078291
H  -3.69574048  0.08933843  2.66298622
O  -1.58840920  3.66288961 -0.57146281
H  -1.21956326  4.57577051 -0.74639588
H  -1.60499455  3.14103473 -1.42433577
O   0.10736917  0.61752332 -5.57591873
H  -0.37913396 -0.25458800 -5.62823730
H  -0.39122750  1.30919851 -6.09839969
O  -3.85466935 -3.75657641  1.76589555
H  -3.83170106 -4.69746958  1.42797149
H  -3.32622983 -3.69349085  2.61251885
O   1.41657279 -2.50052439 -1.91035181
H   1.50905393 -1.69527709 -2.49603539
H   0.44703601 -2.69193446 -1.75751024
O  -3.17836358 -0.23384844  4.26570791
H  -3.49105241 -0.95920645  4.87896341
H  -2.58617856  0.39566530  4.76872725
O   2.15850566 -0.76812350 -3.77196556
H   3.01735090 -0.80339133 -4.28298479
H   1.41543506 -0.50386416 -4.38679367
O  -3.77985837 -3.27450835 -0.80385393
H  -3.67803933 -4.25300967 -0.98320895
H  -3.48707844 -3.07480513  0.13123852
O   3.82658838 -2.87452017 -0.61116975
H   2.91895150 -2.75670039 -1.01405161
H   3.82287834 -3.67284285 -0.00895208
O   0.31140540  3.20488275  1.30504930
H   0.88595651  4.01971353  1.22796461
H  -0.49258782  3.30732072  0.71930081
O   6.89402984 -0.78410136  1.65403903
H   7.20275812 -1.66084277  1.28524316
H   6.32721208 -0.94351756  2.46231133
O  -1.33670832 -2.82355582 -2.72533971
H  -2.18624188 -2.57373320 -2.26071101
H  -1.45377995 -2.71906935 -3.71295124
O   0.18930744  0.39822210  5.57292360
H  -0.01871421  1.21387494  5.03307385
H   0.34720252  0.66001714  6.52504343
O  -3.89517857 -0.03024089 -5.77864366
H  -4.85786511 -0.19847857 -5.56667429
H  -3.82807900  0.66342462 -6.49580866
