78
N16 tacrine microhydration cluster; source_frame=3024; time_ps=3030.048000; n_waters=16; atoms=78; max_selected_waterO_min_distance_A=3.428728; selection=nearest_16_water_oxygens_to_tacrine_heavy_atoms
N  -1.07374630 -0.74943167  0.77920806
N   1.84665051  1.36736005 -1.39288152
C  -0.59077415  3.37938875  1.49738728
C  -0.13075695  2.89714425  0.10625922
C  -1.97137985  2.80119890  1.69747435
C  -0.08999882  1.34131330  0.00921714
C  -2.05112133  1.24804490  1.76849209
C  -1.03852234  0.61538976  0.76128756
C   0.88445129  0.64679330 -0.73253549
C   0.83367577 -0.81187541 -0.75514711
C  -0.25048313 -1.49675948 -0.04130567
C   1.68508759 -1.60286147 -1.54876626
C  -0.36057053 -2.93419272 -0.04266370
C   1.62314835 -3.00512320 -1.43449605
C   0.68433990 -3.69638926 -0.67152990
H   0.09518375  3.09987825  2.29703414
H  -0.68934307  4.46103853  1.58913027
H  -0.58791027  3.34986680 -0.77360071
H   0.88393154  3.25648683 -0.06514562
H  -2.44684086  3.28911012  2.54834353
H  -2.64841518  3.23515504  0.96167266
H  -1.87167988  1.02102559  2.81937920
H  -3.05469856  0.93042367  1.48556077
H   2.54655781 -1.20209510 -2.06224073
H  -1.13384018 -3.31901366  0.60569274
H   1.98764267  2.28179735 -0.98787702
H   2.68181648  0.87525552 -1.67648233
H   2.46831360 -3.47124869 -1.91907991
H   0.85519447 -4.75918681 -0.58394731
H  -1.82515774 -1.17036254  1.30674731
O  -3.26510487 -2.07863528  1.54546200
H  -4.00260792 -2.08937365  0.87020289
H  -3.64396248 -2.24672610  2.45552336
O   0.49559536  0.84243196 -4.07617772
H   0.83600559  1.20230287 -3.20749296
H  -0.19609795  1.46284097 -4.44584192
O  -1.93848572 -2.93442065 -2.65265477
H  -1.04642162 -2.77901847 -3.07700361
H  -1.98108158 -3.86879164 -2.29891027
O   2.52030411  4.36531537 -1.53233350
H   2.77521172  4.68659585 -2.44436467
H   2.02546444  5.08844369 -1.05044092
O   4.81744900  0.41365712 -1.18249143
H   5.28371754  1.10742753 -0.63360704
H   5.07913628 -0.49657160 -0.86154855
O   0.23524895  0.59355539  3.80831706
H   1.18381634  0.78988069  3.55997073
H   0.02322426 -0.35853869  3.58794772
O   2.25264778 -1.60654551 -4.70047773
H   1.88865032 -0.69794470 -4.49565996
H   3.04390755 -1.51994616 -5.30579580
O   1.94773426 -6.27958686  0.74765860
H   1.41389790 -6.46841818  1.57189261
H   2.63871136 -5.58554751  0.94979941
O  -1.88476906 -5.48048693 -1.66797078
H  -1.55715809 -6.27652747 -2.17688192
H  -1.96333656 -5.71374232 -0.69873441
O  -4.15891609  1.88836568 -0.72172941
H  -4.32255611  2.36260312 -1.58678449
H  -3.74568424  0.99611467 -0.90373624
O   4.39832344 -3.21056277 -3.30657495
H   4.85769405 -2.37459475 -3.60680021
H   3.43158855 -3.16866976 -3.55890191
O  -0.86648998 -1.85448176  3.93953883
H  -1.70144711 -1.64194590  4.44715583
H  -0.14197216 -2.10761649  4.58062922
O   4.85094299 -2.10425002 -0.52557958
H   5.48279610 -2.87380225 -0.61805452
H   3.95166626 -2.36751753 -0.87485135
O   0.41691246 -3.39571959 -4.59269536
H   1.06231346 -2.64526660 -4.73509038
H  -0.20883236 -3.44937522 -5.37087549
O  -0.52455959  4.74545759  4.63878667
H  -0.00059566  5.11591905  5.40574180
H  -0.87797604  5.49747175  4.08239447
O   3.52607288  3.36401265  0.83177458
H   3.41592636  3.77874463 -0.07147706
H   2.97299137  3.86432069  1.49795281
