78
N16 tacrine microhydration cluster; source_frame=4536; time_ps=4545.072000; n_waters=16; atoms=78; max_selected_waterO_min_distance_A=3.717814; selection=nearest_16_water_oxygens_to_tacrine_heavy_atoms
N   1.44616604  0.08479377  0.37572447
N  -2.49565697 -0.32229857 -0.81769117
C  -0.06873894 -3.84841136 -0.17188199
C  -0.99193668 -2.61292915 -0.65440543
C   0.79220390 -3.49401764  1.00412242
C  -0.33659649 -1.21504013 -0.34158405
C   1.73555851 -2.36436109  0.59954325
C   0.91098022 -1.13184838  0.21680991
C  -1.13961220 -0.06107334 -0.50090297
C  -0.58010578  1.25211831 -0.29543527
C   0.75764656  1.30148335  0.12821929
C  -1.29022884  2.48221083 -0.41542514
C   1.35826492  2.51922294  0.42131678
C  -0.72671604  3.67016478  0.02552478
C   0.62877178  3.73998566  0.42606513
H  -0.69071102 -4.71038894  0.06945864
H   0.60771561 -4.04687432 -1.00321945
H  -1.10859776 -2.61755351 -1.73813470
H  -1.97374868 -2.75276665 -0.20208915
H   0.19078255 -3.18588595  1.85936991
H   1.37532330 -4.33696155  1.37495581
H   2.40711880 -2.03250293  1.39136187
H   2.45528030 -2.59262828 -0.18658288
H  -2.34840822  2.44774552 -0.62866147
H   2.36695194  2.44911643  0.80083434
H  -2.74556303 -1.24768118 -1.13598951
H  -2.86857271  0.45803114 -1.33934196
H  -1.35961819  4.54478665  0.05504004
H   1.15444660  4.65718242  0.64700953
H   2.34688187  0.08131071  0.83266989
O   3.89309502  0.58410927  1.74461619
H   4.43038559  1.41195985  1.90580908
H   4.29326248  0.06941052  0.98636119
O  -4.21465158  1.58463498 -2.41609891
H  -4.25614500  2.56836625 -2.24130996
H  -5.06021261  1.15406056 -2.10045369
O  -4.35672665 -2.76046352 -1.40210660
H  -5.02672195 -2.54834692 -2.11352237
H  -4.39671469 -3.73620276 -1.18685373
O  -0.17364311  3.26359959  3.40614764
H   0.74941158  3.04008408  3.71921221
H  -0.39649582  4.20240136  3.66880290
O  -2.05418444  5.65203162 -2.18834241
H  -1.15546799  5.28261443 -2.42464670
H  -1.95835781  6.30918094 -1.44069751
O   0.36062241  0.61007114  3.45255725
H  -0.01531506  1.53498526  3.39594046
H   1.30895805  0.65438672  3.76671569
O  -3.74580383 -0.06977920  2.36523310
H  -4.39408875  0.19489785  1.65132014
H  -3.19749975  0.72398134  2.62849490
O   1.50154686 -0.60995988 -3.26961072
H   1.05492306 -1.48342268 -3.07573064
H   0.81211567  0.06691213 -3.52754196
O  -1.18462372  0.17627474 -4.07173642
H  -0.97958279  0.41016098 -5.02213391
H  -2.03463793 -0.34910945 -4.03370412
O  -5.13916826 -1.96842078  1.02691237
H  -4.46056557 -1.41329781  1.50788752
H  -4.74950361 -2.30114506  0.16816012
O  -1.23260784 -1.43334774  3.19684283
H  -2.07000589 -1.04785268  2.80933921
H  -0.51048946 -0.74168758  3.18456999
O   1.88760853 -6.22582869 -2.10291704
H   1.97916126 -6.37850598 -1.11889060
H   0.92377663 -6.28916625 -2.36179384
O   0.59898853 -3.23315450 -3.87199958
H   0.79045105 -4.03997984 -4.43090471
H  -0.38946247 -3.09102305 -3.81942113
O   3.39085674 -4.01340107 -2.19707139
H   2.89981174 -4.87741057 -2.08588394
H   2.74508381 -3.29326419 -2.45080264
O  -0.72489929 -6.29089145 -2.84690317
H  -0.32164955 -5.95644263 -3.69868596
H  -1.19202423 -7.15848998 -3.01739534
O  -2.69281912  2.43483325  3.02734057
H  -1.72916508  2.69991465  2.99412219
H  -3.12623501  2.85306950  3.82560698
