78
N16 tacrine microhydration cluster; source_frame=1613; time_ps=1616.226000; n_waters=16; atoms=78; max_selected_waterO_min_distance_A=3.777490; selection=nearest_16_water_oxygens_to_tacrine_heavy_atoms
N  -0.04891580  1.42250174  0.18671843
N   0.11630828 -2.59478933 -0.23213652
C   3.62546832 -0.34208876 -0.09583906
C   2.51963622 -1.20640761  0.47428366
C   3.73599154  1.03158730  0.56869718
C   1.17904479 -0.55225593  0.26255223
C   2.40098960  1.76423615  0.43114349
C   1.15183551  0.84462612  0.30964705
C   0.02417571 -1.22775513 -0.08253482
C  -1.22818845 -0.58409101 -0.23538354
C  -1.25510019  0.85257405 -0.06205562
C  -2.45461267 -1.27034694 -0.49945477
C  -2.47409337  1.55234927 -0.20366982
C  -3.63097089 -0.52642614 -0.52581719
C  -3.66156858  0.83628624 -0.29615072
H   4.52679354 -0.94524819  0.01330229
H   3.60062701 -0.21854216 -1.17852977
H   2.48055941 -2.13839657 -0.08960441
H   2.70761305 -1.38787681  1.53250548
H   3.96929843  0.94621962  1.63000735
H   4.61179263  1.58062476  0.22282716
H   2.24857337  2.44580620  1.26800200
H   2.52699858  2.34751671 -0.48100022
H  -2.55103963 -2.33572013 -0.64805582
H  -2.55293172  2.62635201 -0.12180022
H  -0.66453737 -3.23401243 -0.27426270
H   1.01912600 -3.02811701 -0.10081533
H  -4.62078374 -0.94722134 -0.62379793
H  -4.61285299  1.34570950 -0.25207404
H  -0.03474706  2.43209713  0.16188475
O  -0.15798276  4.13750809 -0.10104755
H   0.39896304  4.93559569  0.12887975
H  -1.06482595  4.43788641 -0.39669731
O   1.62675387 -4.65648407  1.03545102
H   1.42900950 -5.54887706  1.44107637
H   2.30222422 -4.76422805  0.30597827
O  -1.56101888 -3.41558943 -2.73264268
H  -0.86164945 -3.95944796 -3.19643119
H  -1.85883134 -2.67354469 -3.33320716
O  -2.54894441  1.10194510  3.02881971
H  -2.88650983  0.18753546  2.80542692
H  -1.62309736  1.03385800  3.40053358
O  -3.74711698 -1.66283840 -3.66054014
H  -3.91894334 -0.71240837 -3.40138963
H  -4.25611680 -2.27151078 -3.05190423
O  -1.45211976  1.59264296 -3.40346530
H  -0.92191213  0.74969309 -3.49465278
H  -2.42822545  1.37632769 -3.42411426
O  -4.21431535  0.95344752 -3.62220958
H  -4.94881433  0.70978134 -4.25556377
H  -4.24891466  1.93484848 -3.43338588
O   4.74425608  1.65251082 -2.62269595
H   5.42726618  2.10711115 -2.05100063
H   4.02280623  2.30273741 -2.86084369
O  -2.55984300  5.00468272 -0.93763688
H  -2.80275815  5.00385493 -1.90768436
H  -2.26005452  5.92034453 -0.66988519
O   0.25995070  3.97940558  2.66681255
H   0.17719371  4.21932810  1.69955446
H  -0.14121145  4.70512312  3.22574170
O   6.75593716  2.49794405 -0.70401576
H   7.37135464  2.84830588 -1.41006640
H   7.06247384  2.81606024  0.19311139
O   3.28391177 -1.49744958  3.99491820
H   4.24286086 -1.74385101  3.85454830
H   3.19164855 -0.99279625  4.85329601
O   1.22857386 -2.94113401  3.41691991
H   1.88646990 -2.21640018  3.62169727
H   1.48181540 -3.38858304  2.55921486
O   5.75092513 -2.93996871 -1.57721999
H   6.65461547 -2.84181500 -1.16043523
H   5.67154128 -2.31325394 -2.35241464
O  -2.78671735 -4.92263109 -0.91109660
H  -2.37912267 -4.55452794 -1.74677995
H  -2.46031469 -5.85640246 -0.76435593
O   3.85533053 -4.51492435 -0.76630858
H   3.34142024 -4.72026164 -1.59921506
H   4.60473162 -3.88919300 -0.98277667
