78
N16 tacrine microhydration cluster; source_frame=7158; time_ps=7172.316000; n_waters=16; atoms=78; max_selected_waterO_min_distance_A=3.733702; selection=nearest_16_water_oxygens_to_tacrine_heavy_atoms
N   1.16040764 -0.07455769 -0.81956495
N  -2.07236519  0.39415655  1.75662457
C  -1.76546516  2.71990213 -1.99987949
C  -2.13713303  1.72857485 -0.91834081
C  -0.91444340  2.02424679 -3.14230693
C  -0.93364468  0.94623051 -0.38998903
C   0.38406715  1.53913507 -2.54854453
C   0.20572338  0.74843273 -1.24850286
C  -0.94533482  0.24607620  0.85477244
C   0.05989990 -0.74992647  1.18267571
C   1.15840683 -0.92769041  0.25612294
C   0.15542755 -1.60368719  2.36678349
C   2.21086082 -1.83224096  0.45949923
C   1.20622978 -2.52654924  2.56388890
C   2.22736320 -2.63210287  1.62676131
H  -2.69285240  3.08964357 -2.43730892
H  -1.11103287  3.46746764 -1.55158866
H  -2.64919319  2.27897224 -0.12906469
H  -2.88855305  1.00941381 -1.24433959
H  -1.43758144  1.32078419 -3.79004730
H  -0.63460960  2.80186758 -3.85301078
H   0.92572365  0.85241661 -3.19902480
H   1.05030117  2.37864552 -2.34991372
H  -0.62660351 -1.50645247  3.10527693
H   3.05898056 -1.83150282 -0.20915044
H  -2.40237370 -0.48188963  2.13575136
H  -2.73808994  1.11367950  1.51332032
H   1.22279892 -3.23997869  3.37453353
H   3.09233532 -3.25025454  1.81679403
H   1.96289883 -0.17440596 -1.42465795
O  -3.49371758 -1.82355204  2.70677745
H  -3.85177937 -1.78269186  1.77397429
H  -3.47935619 -2.77412310  3.01695072
O   3.13330040 -0.80659189 -2.82881130
H   3.95169697 -0.70119038 -2.26390708
H   3.34084663 -0.53842344 -3.76956142
O  -3.03698196  3.33877597  2.22085582
H  -3.74081459  2.92542324  1.64313757
H  -2.56631222  4.05799899  1.70978986
O  -2.09310760 -1.99257364 -1.12691749
H  -3.08149281 -1.84778967 -1.08075870
H  -1.85319271 -2.81919661 -0.61786378
O   1.80958138  0.94125805  3.54902827
H   1.55496178  1.72681341  4.11300658
H   1.63910923  0.09696207  4.05706703
O  -4.79570618  4.18668613 -1.83964885
H  -4.74288788  3.46179018 -1.15281833
H  -4.12404099  4.89649854 -1.62744153
O   5.27856598 -0.88852777 -0.60533727
H   5.41265163 -0.28609505  0.18148982
H   5.67332325 -1.78609171 -0.40900863
O   4.44971762 -3.03337660  4.15626954
H   4.34270630 -2.73290434  5.10403805
H   4.30119858 -4.02073183  4.10084080
O   1.01889858 -1.54178324  5.80682329
H   0.05045471 -1.76574507  5.69747349
H   1.48797188 -2.30163469  6.25693015
O  -1.41705647 -2.61739149  5.32829516
H  -2.26591339 -2.09521570  5.24598565
H  -1.50431480 -3.28035059  6.07184856
O  -0.89129105  0.69195614 -6.41213477
H  -1.71481552  0.14633808 -6.25686515
H  -0.92773571  1.09800301 -7.32525981
O  -1.02893581 -5.25705996  2.70556389
H  -0.12377205 -5.25579634  3.13062679
H  -1.71447220 -4.98395338  3.38043677
O   1.02388725 -5.25471392 -0.58052314
H   0.04281197 -5.14476099 -0.42114366
H   1.33204899 -4.57366743 -1.24476112
O  -4.67617645 -1.65277185  0.23324715
H  -5.25266972 -2.39983263 -0.09774507
H  -5.04573956 -0.78006020 -0.08580983
O   5.47097454 -1.18875303  2.57080447
H   4.94959841 -1.79041662  3.17592298
H   5.13605032 -0.25109997  2.66370689
O   0.91238174 -5.67806425  4.54432797
H   1.89567909 -5.76312723  4.38342392
H   0.73895512 -5.62455645  5.52772020
