78
N16 tacrine microhydration cluster; source_frame=2218; time_ps=2222.436000; n_waters=16; atoms=78; max_selected_waterO_min_distance_A=3.751760; selection=nearest_16_water_oxygens_to_tacrine_heavy_atoms
N   0.78857231 -0.99950417 -0.75289743
N  -1.83619141  1.60043422  1.26192124
C  -0.61535454  2.11516468 -3.05908864
C  -0.89499652  2.21107666 -1.52281396
C   0.74396712  1.51611559 -3.36151974
C  -0.48372364  0.95813123 -0.75825386
C   0.73369011  0.08444683 -2.92994206
C   0.38277054  0.05350200 -1.42388551
C  -0.90240264  0.74829618  0.60488470
C  -0.36489868 -0.36495789  1.29156549
C   0.51657245 -1.16849764  0.59550221
C  -0.59365332 -0.62050017  2.71159847
C   1.32649410 -2.16210397  1.32595379
C   0.10442519 -1.60632046  3.32952721
C   1.09472892 -2.36528309  2.68744810
H  -1.32031417  1.40590946 -3.49278109
H  -0.61058485  3.10611240 -3.51307051
H  -0.31348550  3.02161972 -1.08353679
H  -1.93564081  2.53055469 -1.46719472
H   1.00342351  1.55190174 -4.41958516
H   1.63674057  1.98847381 -2.95172303
H  -0.02592313 -0.55985649 -3.37261717
H   1.74129892 -0.30942067 -3.06295865
H  -1.29701662 -0.01419648  3.26302893
H   1.90533841 -2.87488206  0.75737054
H  -2.10831785  1.37288944  2.20757992
H  -2.03282356  2.53283683  0.92716463
H  -0.02812862 -1.85284956  4.37262518
H   1.57694197 -3.18558248  3.19830973
H   1.58303035 -1.50238713 -1.12174051
O   2.57244536 -2.75473746 -1.93125432
H   2.78100917 -2.60094484 -2.89709561
H   2.52188036 -3.73752387 -1.75356262
O  -2.67857268  4.20066063  0.37514652
H  -2.80580309  4.75450889 -0.44769316
H  -2.53798416  4.80090801  1.16250767
O  -1.98899868  2.07266990  4.28249986
H  -2.56804660  2.87222664  4.12308557
H  -2.17723396  1.70070211  5.19145949
O   3.89614198 -0.50983771 -0.46067636
H   4.54982636 -0.33573922 -1.19714515
H   3.30579779 -1.27643736 -0.71330040
O   3.37077567  3.36355869 -4.08675663
H   4.26484129  3.42408458 -4.53058474
H   3.19881770  4.20098297 -3.56795781
O  -1.25988188 -4.08551272  0.40569217
H  -1.59445765 -5.01501121  0.25047715
H  -1.50615147 -3.79254635  1.32955463
O  -2.79295710 -1.56944569  5.16409571
H  -1.97824266 -1.19004830  5.60261352
H  -3.55645779 -0.93264063  5.27154739
O  -3.15975240 -3.00051840  2.71065016
H  -4.02132585 -3.48096045  2.87456126
H  -2.84594229 -2.57921084  3.56154568
O   1.48050174 -4.14599272  5.72929533
H   1.33833662 -4.44829722  6.67184551
H   1.96190140 -3.26949151  5.72939641
O  -0.17560252  2.04983513 -6.75574915
H  -0.43478426  1.08406774 -6.76667731
H  -0.95705274  2.60137836 -6.46396916
O   1.61253640 -0.94847830 -6.22689812
H   0.75597879 -1.36699828 -5.92498724
H   1.57468257 -0.78584584 -7.21285813
O   4.03581068 -4.38847919  3.23285134
H   4.05496308 -4.67430647  2.27476151
H   3.40316126 -4.97189291  3.74214799
O  -1.77535584 -0.38745125 -5.55745690
H  -2.44983771  0.19003526 -6.01743882
H  -2.19665316 -0.82310875 -4.76202528
O  -4.52952364  1.66297094 -1.45458906
H  -5.32528427  1.06187908 -1.38074057
H  -4.18304565  1.87116901 -0.53992705
O   2.90789625 -1.70752724  5.83852394
H   2.77524421 -0.72314461  5.72279127
H   3.84080693 -1.95154770  5.57370002
O  -4.02733210  3.35550014 -4.00549357
H  -3.95366934  2.90942852 -3.11353295
H  -3.88782671  4.33991234 -3.89839308
