78
N16 tacrine microhydration cluster; source_frame=9678; time_ps=9697.356000; n_waters=16; atoms=78; max_selected_waterO_min_distance_A=3.652919; selection=nearest_16_water_oxygens_to_tacrine_heavy_atoms
N   0.46815882 -1.22800147  0.67682180
N  -1.11748686  1.96400226 -1.49314895
C   2.54566393 -0.05435883 -2.60888233
C   1.06543741  0.55511583 -2.52482405
C   2.49192200 -1.57343947 -2.46886101
C   0.38058672  0.17237819 -1.26699033
C   1.90004930 -1.99157607 -1.16665449
C   0.83080111 -0.97972190 -0.56701388
C  -0.62520018  0.96520913 -0.69588532
C  -1.05270758  0.70741189  0.65635643
C  -0.44696894 -0.45924031  1.28589640
C  -1.92753878  1.53838313  1.44927750
C  -0.65586081 -0.73044764  2.58697662
C  -2.23433580  1.13977493  2.78712330
C  -1.62252035 -0.02548968  3.34980831
H   3.02946911  0.16942037 -3.55964794
H   3.24711094  0.19603504 -1.81303396
H   1.26355753  1.62553085 -2.58013811
H   0.42244349  0.22992957 -3.34269514
H   1.88333426 -2.03118216 -3.24872794
H   3.43163309 -2.10878932 -2.60466852
H   1.39488897 -2.94796740 -1.30167212
H   2.72668133 -2.21203696 -0.49124637
H  -2.42530336  2.40406192  1.03790150
H  -0.11019697 -1.53202616  3.06250105
H  -0.55410089  2.14802230 -2.31097045
H  -1.45471087  2.80070556 -1.03893723
H  -2.97498789  1.69490398  3.34359941
H  -1.82600679 -0.30422436  4.37318478
H   0.85970316 -2.07982718  1.05256805
O   1.42688665 -3.44730555  1.78748951
H   0.58724699 -3.96966349  1.63867245
H   2.21422729 -4.06225287  1.74349413
O  -2.42443361  4.57608069 -2.02809515
H  -2.86198702  5.18343461 -2.69117036
H  -1.48126307  4.39945877 -2.30958047
O   0.23780928  4.18037141 -2.93198266
H   1.17813787  3.85752095 -2.82451215
H   0.20421610  4.87607945 -3.64952137
O   4.83089933  1.39185823 -3.95658499
H   5.45433865  2.15856088 -4.10985118
H   4.19146738  1.32397760 -4.72243005
O   2.52495155 -1.33105647  3.09078846
H   3.09710083 -1.29908835  2.27126226
H   2.18968258 -2.26327025  3.22707186
O  -1.33138266 -3.29842364 -1.33598199
H  -1.73023405 -2.77124774 -0.58564701
H  -1.73146334 -3.00002371 -2.20252254
O   2.26634750  1.37363256  1.88230619
H   2.10568724  0.38757003  1.92554626
H   1.94902620  1.80049241  2.72912226
O  -4.47880545  2.41780532 -0.51362076
H  -4.69242945  1.48068298 -0.23763790
H  -3.50626936  2.48627342 -0.73607459
O   4.10612497 -4.24973857 -3.83832918
H   3.22851572 -4.56601226 -3.47808901
H   4.84129677 -4.53590190 -3.22381023
O  -3.43356600 -2.12435233  1.07544861
H  -3.22888365 -2.17486560  2.05297289
H  -3.80441084 -3.00027835  0.76685915
O  -2.61064615  1.23978866 -4.49353095
H  -2.98953714  2.16064037 -4.58558526
H  -2.95782938  0.81874431 -3.65556594
O  -1.78649988  4.90608490  0.76523409
H  -2.15940561  4.61174978 -0.11471357
H  -2.50113859  5.36457671  1.29351101
O  -3.81261435 -0.03313481 -2.44402983
H  -4.27241030  0.06966174 -1.56197491
H  -3.69339075 -1.00514208 -2.64648368
O  -3.33122244 -3.14088809  3.79082022
H  -2.49392977 -3.12435614  4.33732567
H  -3.55646124 -4.08612239  3.55460033
O  -4.97139826 -1.08996855  4.25835285
H  -4.38460245 -1.81477915  3.89735565
H  -4.49577894 -0.61325347  4.99762878
O  -0.24105539  0.96152175 -5.91181829
H  -0.97791281  1.13254560 -5.25776019
H  -0.14405909 -0.02346884 -6.05459490
