78
N16 tacrine microhydration cluster; source_frame=4839; time_ps=4848.678000; n_waters=16; atoms=78; max_selected_waterO_min_distance_A=3.928917; selection=nearest_16_water_oxygens_to_tacrine_heavy_atoms
N  -0.40779292 -1.06176319  0.82668438
N   0.73260010  1.96464596 -1.76489220
C   3.05263007 -1.72902336 -1.48200283
C   1.97749365 -0.69565620 -1.92292271
C   2.37234224 -2.96651020 -0.96680603
C   0.96349729 -0.28371372 -0.90424881
C   1.29660333 -2.63926449  0.18959274
C   0.55719150 -1.28741779  0.00382175
C   0.35275710  0.96960125 -0.83622513
C  -0.70147978  1.20567141  0.18781033
C  -1.16590392  0.07519493  0.94077244
C  -1.49184310  2.36416540  0.41180458
C  -2.16238867  0.18890152  1.86581745
C  -2.52104842  2.50115356  1.33037128
C  -2.85465848  1.39401493  2.12042274
H   3.64102138 -1.93989315 -2.37499199
H   3.81508840 -1.30926456 -0.82583294
H   2.51595939  0.15941582 -2.33158646
H   1.46364868 -1.16860237 -2.75981293
H   1.79557837 -3.55090847 -1.68368969
H   3.17053974 -3.55926838 -0.52001915
H   0.61309851 -3.47853413  0.31823006
H   1.76075805 -2.44229259  1.15595856
H  -1.36729275  3.25743160 -0.18230114
H  -2.42961013 -0.72791424  2.37023964
H   1.30764855  1.75590382 -2.56853733
H   0.37167419  2.89869652 -1.63304863
H  -2.93831145  3.48903522  1.45836201
H  -3.46734034  1.52321253  3.00038280
H  -0.53900515 -1.66980305  1.62240448
O   0.29681171  4.77506742 -1.52146206
H   0.69042314  4.75276909 -0.60245571
H  -0.65329491  5.08267746 -1.46975574
O   0.04569114 -2.98824062  3.10834541
H   0.07325757 -3.98547115  3.03927364
H   0.72880710 -2.68100872  3.77088680
O  -1.31510293 -3.07520714 -1.78538761
H  -0.84493434 -3.91436234 -2.05880795
H  -1.30451047 -2.42464390 -2.54476604
O  -1.99636685  2.79740152 -3.38354263
H  -2.93745553  2.48825893 -3.24649010
H  -1.74392258  3.43122730 -2.65242157
O   0.29910291  4.97562227  1.34942570
H   0.79057515  5.81966743  1.56400051
H   0.31362689  4.37000141  2.14504662
O  -2.44709098  4.99341450 -1.66684589
H  -2.70650851  5.44371161 -0.81248341
H  -3.05410134  5.29697022 -2.40128002
O  -2.44782292 -2.56031265  4.06365910
H  -1.50243889 -2.66794052  3.75598183
H  -2.92818438 -3.43302002  3.97627726
O   5.85543168 -1.16821613 -3.55909882
H   6.26918281 -1.60256805 -2.75900612
H   6.57124294 -0.75255814 -4.12020741
O   4.09163887  0.53682384 -4.73456440
H   4.79033751 -0.08028450 -4.37262831
H   4.21200080  0.63376389 -5.72255001
O  -4.74125373  5.43304286  0.66894379
H  -4.86594092  6.28929100  0.16765251
H  -3.87647330  5.46315513  1.17019024
O   4.72217576 -4.35198727  1.65144386
H   5.19851918 -4.31980171  2.53011360
H   3.84653405 -4.82164707  1.76401081
O  -2.80933367  4.06287584  4.81852570
H  -3.69173419  4.53336535  4.82137241
H  -2.95395648  3.08238993  4.95168676
O  -5.17035472 -1.25166168  3.91142597
H  -4.17915141 -1.36233940  3.83886280
H  -5.41573416 -1.06079521  4.86187782
O  -2.13273894  6.39105949  1.02266445
H  -1.99568021  7.33345590  1.32779446
H  -1.30344855  5.86022506  1.19728508
O   3.96743856  3.36441431 -3.49536381
H   4.63810978  3.25005636 -2.76247749
H   3.84537167  2.49499187 -3.97411690
O  -6.70682036  1.29553328  1.35391083
H  -7.03525912  1.63852320  0.47386208
H  -6.49141394  2.06680546  1.95285931
