78
N16 tacrine microhydration cluster; source_frame=6855; time_ps=6868.710000; n_waters=16; atoms=78; max_selected_waterO_min_distance_A=3.621364; selection=nearest_16_water_oxygens_to_tacrine_heavy_atoms
N   0.19502252 -1.01085997 -1.01831419
N  -0.42169673  1.82028818  1.88672679
C  -3.77844054 -0.51117063  0.61334723
C  -2.75337226  0.60553384  0.84079903
C  -3.58278090 -0.98284531 -0.83171922
C  -1.31378752  0.26326847  0.34661930
C  -2.18832690 -1.61537981 -1.16720087
C  -1.06163508 -0.76495981 -0.55700142
C  -0.16437537  0.96723008  0.81511801
C   1.21316427  0.63925385  0.35431784
C   1.34806722 -0.38569093 -0.62340767
C   2.43293565  1.24110794  0.77373951
C   2.64035409 -0.85663342 -1.08630115
C   3.63538545  0.82093024  0.27241152
C   3.79948610 -0.23007274 -0.61913473
H  -3.54878813 -1.33926153  1.28388804
H  -4.78324706 -0.10822225  0.74023121
H  -3.10003192  1.47594786  0.28374689
H  -2.70622355  0.79952598  1.91236037
H  -4.40974433 -1.65652657 -1.05618889
H  -3.74942214 -0.09210491 -1.43745214
H  -2.20696551 -2.55519152 -0.61537964
H  -1.95966441 -1.86544180 -2.20319444
H   2.44952958  2.10546994  1.42104357
H   2.88289255 -1.58812141 -1.84293873
H   0.38170331  2.23518062  2.33674043
H  -1.31228644  2.29313660  1.94471877
H   4.53650182  1.34365225  0.55728215
H   4.75002330 -0.68431735 -0.85691673
H   0.33134836 -1.82161617 -1.60499078
O  -2.23379714  3.95461315  2.68332809
H  -1.79970271  4.83396149  2.48760336
H  -3.17278487  4.10766327  2.99135249
O  -0.29487616  0.11063695 -3.77334530
H   0.06767362  1.02348185 -3.58553631
H  -1.29162699  0.12507296 -3.69411308
O   0.74017423 -3.89005136  0.02827996
H   1.64403432 -3.94476223 -0.39603407
H   0.05348104 -4.25169420 -0.60232860
O   0.92456334  4.34027016  0.51542157
H   1.00443261  5.25365281  0.11623066
H   0.20123857  3.83357614  0.04631394
O   3.94392007 -3.66656685 -0.03998453
H   4.94386190 -3.67293835 -0.03120214
H   3.60696023 -4.57530546 -0.28626138
O  -3.04882723 -0.21566415 -4.00168735
H  -3.31324298  0.23390770 -4.85489875
H  -3.29286391 -1.18442345 -4.04585773
O  -0.74974925 -4.35419464 -2.27116138
H  -1.28560359 -3.94414186 -3.00920993
H   0.07766908 -4.76838112 -2.65040714
O   3.00481981  0.95945239 -3.87009746
H   3.93303102  0.60136676 -3.76910812
H   2.67898172  0.78366637 -4.79903633
O   4.80342429  3.96746010  0.26607579
H   4.19464582  3.67044926  1.00172013
H   5.61945003  4.39108813  0.65932005
O  -4.44307810  0.89838052  3.88400286
H  -4.43881804  1.78836656  4.33997100
H  -3.58245379  0.42437983  4.07014554
O   5.86850398  0.19866300  2.89117091
H   4.93135637 -0.07542634  2.67523259
H   5.85698694  0.87097406  3.63134986
O  -0.92442900  3.61844295 -1.37210113
H  -0.67244536  4.51434612 -1.73797208
H  -0.40429408  2.90707666 -1.84477121
O   3.61545652 -2.16278553  2.36995166
H   3.82561963 -2.53716755  1.46680754
H   2.62468046 -2.07254839  2.47104901
O   3.32484334  1.12679040  4.23789626
H   3.21801942  1.52533305  5.14880371
H   2.91784376  0.21346998  4.22385168
O   3.83761018  3.69658536  2.97269886
H   3.76843732  2.86871952  3.52934378
H   4.59396547  4.25976920  3.30549067
O  -0.21918685  4.21345890  4.59707766
H  -0.56754405  5.05141306  5.01717230
H  -0.67975241  4.06275523  3.72233969
