78
N16 tacrine microhydration cluster; source_frame=4335; time_ps=4343.670000; n_waters=16; atoms=78; max_selected_waterO_min_distance_A=3.714212; selection=nearest_16_water_oxygens_to_tacrine_heavy_atoms
N  -0.69513707 -1.29373671  0.18197846
N   1.04764028  2.52988742 -0.08395311
C   2.91126270 -0.79156955  2.24769139
C   2.15631242  0.49034212  1.82343316
C   1.95919890 -1.96117820  2.66775107
C   0.98407693  0.22394322  0.89592886
C   0.89856906 -2.26437606  1.69116914
C   0.35969825 -1.02526863  0.95546460
C   0.50163741  1.26336597 -0.04714838
C  -0.55111651  0.89400552 -0.92633641
C  -1.26028638 -0.40509887 -0.74722111
C  -1.07901578  1.75490878 -1.87781453
C  -2.28369670 -0.84276076 -1.60335803
C  -2.16873031  1.32861183 -2.66940260
C  -2.78041320  0.09892391 -2.50818253
H   3.55927653 -1.08687110  1.42247951
H   3.68372245 -0.56183966  2.98160577
H   1.80245776  1.00862645  2.71465039
H   2.91306705  1.17107461  1.43352807
H   2.46287746 -2.89132263  2.93088508
H   1.46456141 -1.57445057  3.55874801
H   1.17865129 -3.00237657  0.93949807
H   0.03223891 -2.78549101  2.09861469
H  -0.62259154  2.71382402 -2.07417989
H  -2.77664046 -1.79770406 -1.49616790
H   1.87342353  2.70779060  0.46970063
H   0.92474551  3.12824081 -0.88829768
H  -2.52407031  1.98476122 -3.45017290
H  -3.50802093 -0.24307038 -3.22931099
H  -1.13570027 -2.19433452  0.30415606
O  -2.61597877 -3.36910708  0.52085130
H  -2.64934020 -4.23131402  0.01539473
H  -2.71959357 -3.55168863  1.49856703
O  -0.94406610 -0.76210787  3.79020569
H  -1.89500766 -0.62390436  4.06699058
H  -0.38759570  0.00212388  4.11622807
O  -0.27538209 -3.20981653  4.50163743
H  -0.55005126 -2.27838267  4.26291630
H  -0.33391576 -3.33096297  5.49254462
O   3.39235444  4.69171207  0.48491150
H   2.93064065  5.35719220  1.07138956
H   3.52995248  5.08677880 -0.42337769
O  -1.85612159  1.39976804 -5.92850736
H  -1.23496394  1.42285006 -6.71185306
H  -2.39524035  0.55796473 -5.95530942
O   0.29998298  0.29490273 -4.81618169
H  -0.39940553  0.86840932 -5.24273303
H  -0.04967551 -0.63633277 -4.71351960
O   3.83431954 -4.75517185  1.97671339
H   3.02343793 -4.88097961  2.54824063
H   4.52439077 -5.43580468  2.22276327
O  -1.33921103 -1.91312267 -4.96213010
H  -2.19371181 -1.55072095 -5.33427623
H  -1.03475766 -2.68629272 -5.51847222
O   4.79055746  1.85710375  3.81082818
H   5.63706483  1.66037910  4.30552480
H   5.00245841  2.05831973  2.85447547
O  -3.56407695 -0.64763828 -5.91756681
H  -3.94333510 -1.09180577 -6.72928002
H  -4.28490405 -0.53002234 -5.23450330
O  -2.05292850  2.49429338  2.15177557
H  -2.51441436  1.76088898  2.65092441
H  -2.36034160  2.49456803  1.20019946
O  -2.48471408  4.07773892 -4.99365667
H  -2.74734740  4.61651103 -5.79412416
H  -2.12873607  3.19163339 -5.29046777
O  -3.88888602 -1.40740591  1.89573237
H  -4.83063750 -1.71646291  2.02835235
H  -3.55433898 -1.72853136  1.00975475
O  -0.12920432 -3.54026122 -2.89436224
H   0.82998128 -3.28144713 -2.78043988
H  -0.58219819 -2.88377722 -3.49754193
O  -4.56448607  4.07991378 -3.24077299
H  -4.62803416  4.96880738 -2.78708842
H  -3.79561477  4.08623616 -3.88014510
O   5.49580212 -2.95796640  0.69133263
H   4.76536949 -3.41042240  1.20294940
H   6.29371990 -2.84083875  1.28260958
