78
N16 tacrine microhydration cluster; source_frame=5444; time_ps=5454.888000; n_waters=16; atoms=78; max_selected_waterO_min_distance_A=3.874587; selection=nearest_16_water_oxygens_to_tacrine_heavy_atoms
N   0.00100333  1.33281978 -0.43666833
N   0.18249900 -2.56868283  0.85554606
C  -2.98610490 -1.11789051 -2.00669568
C  -1.77491134 -1.82047526 -1.43774026
C  -2.62479204  0.02583548 -2.88294595
C  -0.85325902 -0.86925665 -0.60140794
C  -1.60161823  1.05346694 -2.20665735
C  -0.81054395  0.48598596 -1.03991025
C   0.02866847 -1.22094361  0.44961936
C   0.89395625 -0.26509861  1.04983908
C   0.91411883  1.03675302  0.52215678
C   1.67046839 -0.48346320  2.14090830
C   1.80145365  2.07958039  0.91015631
C   2.50372225  0.52531096  2.66991812
C   2.65533930  1.80605813  2.01388175
H  -3.73968070 -1.70588795 -2.53060621
H  -3.56878990 -0.72389570 -1.17402166
H  -2.16262668 -2.67636696 -0.88526719
H  -1.22816890 -2.30849901 -2.24458879
H  -2.16089147 -0.35621217 -3.79230636
H  -3.54648918  0.54194292 -3.15166229
H  -1.03739780  1.54834064 -2.99713510
H  -2.07406896  1.99491938 -1.92637628
H   1.76338393 -1.49017493  2.52077395
H   1.63672263  3.05430385  0.47521025
H   0.91670996 -2.88291708  1.47384268
H  -0.37979596 -3.28442255  0.41777808
H   3.14327532  0.13086828  3.44566733
H   3.32459838  2.51945039  2.47166258
H   0.00831896  2.26189491 -0.83273118
O  -0.13626283  3.84442493 -1.67377942
H  -0.23396581  4.55083915 -0.97275632
H  -0.43660444  4.20667764 -2.55614370
O  -0.86057561 -0.21568934  4.01224143
H  -0.92037099 -1.20949403  4.10592562
H  -1.44595235  0.08390325  3.25886351
O  -0.61821836 -5.74269799  1.38829333
H  -0.49451917 -5.70037631  2.37971026
H   0.27226550 -5.84724692  0.94545180
O   2.57810027  0.61776539 -2.42839139
H   3.54924399  0.52141833 -2.64655584
H   2.26799208  1.53311130 -2.68524736
O   1.29383856 -3.80262903  3.77561003
H   1.05298716 -4.22306231  4.65038211
H   2.00553996 -4.34541110  3.32966239
O   3.21302802  5.13113757  0.70842368
H   3.90511042  4.54544564  0.28654010
H   3.20238310  4.97608777  1.69627291
O  -2.87243789 -0.05750579  1.97570235
H  -2.98252958 -1.04890782  2.04642684
H  -3.07691472  0.23475980  1.04148108
O   2.49704653  4.86144897  3.49663645
H   2.57094580  4.23299714  4.27096659
H   1.81605345  5.56443473  3.70172316
O   0.21056372 -4.92915705 -1.73413843
H   0.54466921 -5.65653828 -1.13473028
H  -0.61453145 -5.23915747 -2.20649141
O  -2.72500747 -4.81014804  0.13482005
H  -2.11231559 -5.19377497  0.82578952
H  -2.48797696 -5.18045691 -0.76333803
O  -2.54648393  2.61189386 -5.37710374
H  -1.94455903  3.27060934 -4.92568391
H  -1.99435561  1.93419930 -5.86278289
O  -3.31005472 -2.76323417  1.78815180
H  -2.94750112 -3.50072793  1.21836383
H  -4.20274680 -2.47956971  1.43795783
O   1.52050311 -2.83769516 -2.70096200
H   2.33534247 -2.45124916 -2.26887792
H   1.10449225 -3.50895003 -2.08748716
O   1.01288993 -0.55523328 -4.22872537
H   1.02517802 -1.41182462 -3.71287626
H   1.59704024  0.11655858 -3.77324336
O   3.01930243 -4.87029341  1.51099402
H   3.41888625 -4.05864123  1.08490378
H   3.53723056 -5.10394076  2.33389098
O   0.57779223  1.06483265  5.98837144
H   1.30196006  0.46634408  6.33099658
H   0.15284068  0.64765903  5.18501431
