78
N16 tacrine microhydration cluster; source_frame=6654; time_ps=6667.308000; n_waters=16; atoms=78; max_selected_waterO_min_distance_A=3.928709; selection=nearest_16_water_oxygens_to_tacrine_heavy_atoms
N  -0.24116198 -1.40920674  0.27873052
N   0.31449922  2.52398456 -0.54436337
C   0.98861345 -0.48171174 -3.70531642
C   0.83860429  0.60014165 -2.67298114
C   1.52170404 -1.73223292 -3.00706183
C   0.31891855  0.32001842 -1.28747546
C   0.50491842 -2.15850531 -1.87930094
C   0.25344499 -1.03319060 -0.92440879
C   0.05309900  1.22635949 -0.28078257
C  -0.31758944  0.84263957  1.06053985
C  -0.54467456 -0.52499472  1.29879201
C  -0.49761454  1.73553146  2.16925920
C  -1.00256793 -1.03420626  2.51853884
C  -0.92553679  1.23764814  3.39075697
C  -1.26465670 -0.11227500  3.58507312
H   0.05179056 -0.70927083 -4.21392333
H   1.65275033 -0.12327086 -4.49179064
H   1.76161893  1.17484678 -2.59644019
H   0.23843320  1.43995870 -3.02312552
H   1.67853673 -2.61778413 -3.62293708
H   2.46161683 -1.40085684 -2.56564032
H  -0.43412749 -2.43317091 -2.35977065
H   0.88865503 -3.02577769 -1.34200656
H  -0.30245368  2.79345191  2.07378257
H  -1.10700194 -2.10901534  2.53525508
H  -0.22896735  3.16778148  0.01265443
H   0.56420739  2.76409686 -1.49309527
H  -0.85665671  2.01102508  4.14145244
H  -1.65796010 -0.46879517  4.52560819
H  -0.44890658 -2.38729107  0.42118562
O  -0.85280387  4.97960246  0.52778638
H  -0.27074305  5.35660518 -0.19268166
H  -1.79669396  5.27655376  0.38324607
O  -3.69195620  0.03898538  1.08498252
H  -3.16091172 -0.04175555  1.92847074
H  -3.79683892 -0.86448895  0.66937078
O   0.68859704 -4.34167289  1.18063272
H   1.34865697 -4.20974743  1.92017163
H   1.07772668 -4.95319807  0.49170888
O   0.74342569  3.70972122 -3.71997344
H   1.23698552  3.26493514 -4.46734511
H   1.32715352  4.40654910 -3.30320822
O  -2.51978985  4.29493678  3.09912575
H  -3.32188098  3.87799896  2.67155922
H  -1.79823891  4.40693153  2.41588271
O   2.04381307  5.38163341  0.18707908
H   1.84836992  5.49677051 -0.78685366
H   2.98581251  5.06669105  0.30304588
O   2.72567781 -1.62937771 -6.42902743
H   2.92949804 -1.72946393 -7.40290629
H   1.76194700 -1.84120976 -6.26670062
O   0.17050680 -2.72735893 -6.29433905
H  -0.17853610 -3.52384340 -5.80059611
H  -0.54902617 -2.35818874 -6.88254534
O  -0.91637389  0.81570495 -6.51953208
H  -1.69537751  0.34526456 -6.93406665
H  -0.15443675  0.83300603 -7.16695201
O   1.08376249  3.68625320  5.34938932
H   1.20443090  2.75382293  5.00878239
H   1.79800733  3.89175666  6.01843513
O  -1.69407622  2.52253307 -4.61398589
H  -1.01134650  2.90783561 -3.99316203
H  -1.26559893  1.82643855 -5.19005953
O   2.84935697 -5.18140697 -3.50421416
H   2.56442960 -4.95606267 -4.43589865
H   3.66083272 -4.64795529 -3.26560103
O  -1.77227513 -4.71208262  2.78433979
H  -2.63316886 -4.74013924  2.27632941
H  -1.01043193 -4.61428153  2.14400423
O  -4.68968312  1.45839990  3.84032036
H  -5.51923482  1.90413917  4.17671407
H  -4.03657309  1.35950483  4.59109784
O  -0.60538069 -5.80954619 -1.97255456
H  -1.18520800 -6.58055278 -1.70921122
H   0.28722413 -5.89748033 -1.53037392
O   5.00638326 -1.35105597 -4.78089034
H   5.81904252 -1.06388985 -5.28795993
H   4.24137624 -1.46583211 -5.41460215
