78
N16 tacrine microhydration cluster; source_frame=6754; time_ps=6767.508000; n_waters=16; atoms=78; max_selected_waterO_min_distance_A=3.660363; selection=nearest_16_water_oxygens_to_tacrine_heavy_atoms
N  -1.01327820  1.07499224 -0.10227057
N   1.83026676 -1.95732969  0.16413263
C   3.00539474  2.27510649 -0.74295851
C   2.75448971  0.72955996 -0.55795809
C   1.86983566  2.97906977 -1.44672820
C   1.25879364  0.35362727 -0.23931834
C   0.61571388  2.82222468 -0.60590598
C   0.28018074  1.37629325 -0.33628413
C   0.84023266 -0.93594068  0.11465886
C  -0.50982876 -1.24352544  0.38395646
C  -1.44328136 -0.19441121  0.22336725
C  -0.97127743 -2.50568765  0.78637269
C  -2.83750267 -0.42086690  0.50957635
C  -2.37197227 -2.66517347  0.95229867
C  -3.30776711 -1.68793863  0.89706090
H   3.03759651  2.66173083  0.27566102
H   3.96451311  2.44426257 -1.23242518
H   3.06698399  0.26586730 -1.49360511
H   3.45351677  0.48651511  0.24228624
H   2.13920097  3.98194081 -1.77807757
H   1.65875320  2.44748122 -2.37460658
H   0.83724957  3.31737954  0.33952764
H  -0.20461674  3.41809947 -1.00601908
H  -0.33797951 -3.34697431  1.02630952
H  -3.54854984  0.38957793  0.57274869
H   1.66187458 -2.92898362  0.38237909
H   2.79309063 -1.65509408  0.12260297
H  -2.77536030 -3.64013093  1.18281225
H  -4.34668560 -1.90224737  1.09984306
H  -1.70424957  1.78438861  0.09626630
O  -4.69328804 -1.43678754  3.52767471
H  -3.92829914 -0.86406225  3.82225707
H  -4.84032078 -2.16607469  4.19589713
O  -2.44685097  3.62668521  0.48039201
H  -2.89830894  3.58875329  1.37187770
H  -2.35246010  4.58040291  0.19488767
O  -3.06722851  1.69205481 -2.27570388
H  -2.16005058  1.56160647 -2.67571685
H  -3.56009693  0.82195098 -2.27646205
O   0.75354652  5.99812419 -0.36479804
H  -0.24272747  5.96947629 -0.28344771
H   1.16615658  5.57609326  0.44244626
O  -2.86925240 -4.50427621  3.58783344
H  -3.78985615 -4.61490243  3.96233371
H  -2.26558800 -5.20060342  3.97605804
O   4.78104334 -3.28610891  1.24080375
H   4.61198072 -2.82960790  2.11431650
H   4.15732317 -4.06171983  1.14384607
O  -4.47858448  1.60060794  2.73404554
H  -5.38750763  1.19035536  2.80854944
H  -3.80410786  0.99559313  3.15717462
O  -0.81811638  1.86192233  3.26885846
H  -1.16940517  2.15568263  4.15784696
H   0.03387718  2.34643847  3.07048801
O  -5.05232258  2.20528895 -0.31932017
H  -4.39144249  2.29425913 -1.06451842
H  -4.62348003  2.48045069  0.54113344
O  -4.36711807 -0.65224927 -2.69280764
H  -4.39387913 -1.19317716 -3.53345057
H  -5.09932156 -0.95102018 -2.08075091
O   2.69463234  5.18507153  1.29802469
H   2.86689262  6.01733071  0.77108005
H   3.55901031  4.83296258  1.65700963
O   1.98484402 -5.52928346 -0.01862857
H   2.54797630 -6.34525579 -0.14929244
H   1.94316368 -5.30549138  0.95511630
O  -2.20765610 -2.22063154 -2.63967177
H  -2.68545647 -3.01569646 -3.01327368
H  -2.87113400 -1.50449270 -2.42300746
O  -6.12579746 -2.46558851 -1.23287245
H  -6.90460796 -2.42714303 -1.85895201
H  -6.44231434 -2.73480409 -0.32329032
O  -6.83961220 -2.51738351  1.36328462
H  -6.46076031 -2.20419782  2.23413804
H  -7.43287678 -1.80765241  0.98339132
O   1.83172493  0.63950068 -4.26154944
H   1.71012859 -0.25855535 -3.83880755
H   1.80090408  0.54636389 -5.25672576
