78
N16 tacrine microhydration cluster; source_frame=6452; time_ps=6464.904000; n_waters=16; atoms=78; max_selected_waterO_min_distance_A=3.796353; selection=nearest_16_water_oxygens_to_tacrine_heavy_atoms
N  -0.41713187  1.23371061 -0.72904984
N   0.63864759 -2.25874392  1.22044834
C   3.17982343 -0.64634005 -2.04541985
C   2.53036455 -1.21249167 -0.77031438
C   3.13386205  0.86647733 -1.99743144
C   1.18189863 -0.51036803 -0.36296956
C   1.72807935  1.46321519 -1.95023457
C   0.78816274  0.66385778 -1.02705304
C   0.28768304 -1.09019534  0.56661113
C  -0.95824572 -0.48199908  0.87811645
C  -1.28760287  0.79018434  0.24861606
C  -1.87755582 -0.95705191  1.91984447
C  -2.49635789  1.47116216  0.47282966
C  -3.04136941 -0.25993125  2.12021907
C  -3.39025780  0.92851384  1.45578750
H   4.16974309 -1.00715796 -2.32465283
H   2.49878934 -0.95859877 -2.83711878
H   2.46308664 -2.29437129 -0.65581814
H   3.27140764 -0.90081565 -0.03423421
H   3.71549943  1.16820463 -1.12636439
H   3.51466611  1.39688619 -2.87021701
H   1.78212312  2.54602941 -1.83757083
H   1.37531713  1.41885122 -2.98061816
H  -1.70073363 -1.82483832  2.53797038
H  -2.73118779  2.34848817 -0.11159722
H  -0.16853711 -2.83844630  1.40072139
H   1.50057748 -2.70398585  0.93949016
H  -3.72249934 -0.53350512  2.91244396
H  -4.23846409  1.54911168  1.70439227
H  -0.60705468  2.16398462 -1.07345978
O   3.10875467 -3.67784278  1.26559718
H   4.04828122 -3.70970503  0.92460521
H   3.10880903 -3.35911051  2.21344264
O  -0.95153853  3.96522744 -1.53457467
H  -0.73700139  4.61006769 -2.26816479
H  -0.91880080  4.43875345 -0.65440385
O  -0.84901520 -4.02600924  3.10334476
H  -1.60756776 -4.67742411  3.08730300
H  -0.02315995 -4.48411433  3.43213447
O  -5.49634549 -2.38250701  2.26111396
H  -5.19704529 -3.12675158  1.66402133
H  -4.92696497 -2.36505953  3.08300289
O  -6.57160350 -0.08910338  1.38536533
H  -6.18796298 -1.00904910  1.46611293
H  -6.14237460  0.51142915  2.05999263
O   0.27676442 -1.62809722  4.54465183
H  -0.05662867 -1.93561618  3.65342792
H   0.21879628 -0.63111655  4.59631999
O  -3.02300450  1.72277387  4.89026244
H  -3.92026660  1.28127511  4.89011939
H  -2.30786606  1.02435811  4.86211665
O   0.88832143  2.55154165  2.19807418
H   0.29942659  3.22254594  1.74756511
H   1.83077100  2.67270597  1.88645347
O   2.77289823 -2.73094527  3.88584884
H   3.45953134 -2.06160418  3.60209258
H   1.97211126 -2.25390307  4.24802383
O   5.24180177 -3.43666617 -0.34634511
H   5.70039037 -2.56971804 -0.54153458
H   4.77265218 -3.75815455 -1.16886775
O  -4.15717050 -2.60294406  4.54466041
H  -3.24279257 -2.97825591  4.69649394
H  -4.77812215 -2.94172064  5.25152000
O  -4.50235316  4.43088659  0.55654319
H  -4.90300867  3.97365793 -0.23744504
H  -3.83064315  5.10494741  0.24921974
O   0.03496555  0.18538793 -4.93019168
H   0.87648252 -0.09118430 -5.39425723
H  -0.29164168 -0.56577079 -4.35652844
O  -0.15326401 -2.11900202 -3.40653435
H   0.75856355 -2.43810145 -3.66488806
H  -0.57883164 -2.78581874 -2.79477708
O   3.35853437  1.67714437 -5.60511581
H   2.94974759  0.77935346 -5.76901857
H   4.35510209  1.60023530 -5.63575570
O   3.69183591 -2.91221205 -5.04807917
H   4.60106901 -2.50118510 -5.11404840
H   3.61284974 -3.40977351 -4.18425433
