78
N16 tacrine microhydration cluster; source_frame=4133; time_ps=4141.266000; n_waters=16; atoms=78; max_selected_waterO_min_distance_A=3.603420; selection=nearest_16_water_oxygens_to_tacrine_heavy_atoms
N   0.47241028  1.13936246 -0.82611177
N  -0.89916531 -2.01760089  1.49635389
C   0.85470088 -2.77017771 -2.42041609
C   0.55244048 -2.60198962 -0.92206190
C   1.89428695 -1.70240103 -2.82862709
C   0.13621767 -1.21075665 -0.53683374
C   1.33041032 -0.28768479 -2.66397629
C   0.59752878 -0.11230122 -1.29453132
C  -0.47016946 -0.95246398  0.71045282
C  -0.58333770  0.33251966  1.16217782
C  -0.08691684  1.46117891  0.34683540
C  -1.22216098  0.76597989  2.41033676
C  -0.27342931  2.79934896  0.68628767
C  -1.35260693  2.08262552  2.77926376
C  -0.95020882  3.07436050  1.90085008
H   1.16763433 -3.77637564 -2.69923100
H  -0.01819150 -2.57341181 -3.04286478
H  -0.24187438 -3.30524241 -0.67186210
H   1.36178907 -2.93607699 -0.27287719
H   2.85710176 -1.88592421 -2.35175512
H   2.21135887 -1.82741915 -3.86397026
H   2.07512554  0.48896087 -2.83810518
H   0.48229106 -0.08487021 -3.31793354
H  -1.57945649 -0.01292025  3.06764581
H   0.06059798  3.56402315  0.00064971
H  -0.80589954 -2.93286311  1.07958534
H  -0.58919756 -2.09875189  2.45418193
H  -1.84706561  2.26061548  3.72278407
H  -1.15446774  4.07794035  2.24364164
H   0.68691619  1.86232723 -1.49798152
O   1.15057214  2.96348060 -2.93837271
H   0.60094150  3.05563320 -3.76868216
H   1.45732578  3.86719311 -2.63969920
O   0.55378588 -4.24926554  2.60359790
H   0.54718645 -4.92284190  1.86451032
H   0.83900579 -4.69071089  3.45434787
O   0.21612748 -1.66312586  4.25609710
H   0.36602982 -0.79842793  4.73549964
H   1.09235652 -2.02249991  3.93504741
O  -1.77764301 -3.45670211  3.98749759
H  -1.02561037 -2.82908141  4.18884208
H  -1.47629873 -4.13332450  3.31565359
O  -1.64820520 -4.84289824  0.40791824
H  -2.39589439 -5.39357173  0.77902391
H  -0.80737130 -5.38414275  0.40069606
O  -3.99131403  0.82968391  0.66216924
H  -3.56817294  1.41078580  1.35734680
H  -3.28763805  0.49077953  0.03768232
O   0.84032949  5.87348080  1.05480411
H   0.64824589  6.63361330  1.67553117
H   0.43848523  6.06472380  0.15928867
O   0.47177752  3.55594195  5.21546772
H   0.89738878  3.42246974  4.32045867
H   1.16490157  3.84980453  5.87366512
O  -0.58227507 -5.26104247 -4.24822166
H  -0.34362713 -4.43972861 -4.76638301
H  -1.26281134 -5.03037059 -3.55276462
O   3.34329351  1.72966827  0.91282775
H   3.48559936  0.79254497  0.59416082
H   3.99466737  2.33831848  0.45977476
O   4.00489076 -0.05126464 -4.95336775
H   3.96558317  0.68941987 -4.28266553
H   3.13547643 -0.10241400 -5.44479666
O  -0.61660496  5.50284065 -1.42149279
H  -1.24235098  5.27395857 -2.16718361
H   0.06664666  6.15581585 -1.74828122
O   2.72331270 -2.88168132  1.82223442
H   1.84958776 -3.36727606  1.85054519
H   3.01602205 -2.66761386  2.75416639
O  -2.37763617 -4.21423232 -2.44735882
H  -2.57418482 -3.29502856 -2.78858182
H  -2.24419526 -4.18062483 -1.45687196
O  -3.33522259  5.32852650  0.46683433
H  -3.98381577  6.00288422  0.11389186
H  -2.41104548  5.56693990  0.16841295
O  -0.14424340 -3.25850379 -5.84799323
H  -1.03851024 -3.04133784 -6.23930643
H   0.55930909 -3.16573416 -6.55255506
