78
N16 tacrine microhydration cluster; source_frame=302; time_ps=302.604000; n_waters=16; atoms=78; max_selected_waterO_min_distance_A=3.708835; selection=nearest_16_water_oxygens_to_tacrine_heavy_atoms
N   0.16744459 -1.14480151  1.00522652
N  -0.21085799  1.98946630 -1.77614937
C  -1.71426356 -1.97675337 -2.75083218
C  -1.35558867 -0.56423796 -2.47178993
C  -2.13635170 -2.78053368 -1.48684464
C  -0.67789888 -0.33367009 -1.08615074
C  -0.98236251 -2.73623098 -0.40839157
C  -0.56251013 -1.33998169 -0.11345825
C  -0.16350520  0.96499859 -0.82135067
C   0.53255498  1.20155107  0.41916218
C   0.73860466  0.05810510  1.26968803
C   1.16698301  2.41408502  0.79846516
C   1.49774277  0.22750901  2.46214809
C   1.75722826  2.56629525  2.08750572
C   1.94278038  1.45419894  2.87277164
H  -2.44671881 -1.97496952 -3.55805264
H  -0.90519166 -2.51337923 -3.24634705
H  -0.66587174 -0.24238659 -3.25204811
H  -2.20253932  0.10452281 -2.62519798
H  -3.08483469 -2.40398086 -1.10384521
H  -2.36000264 -3.80360545 -1.78917656
H  -1.30703175 -3.32195534  0.45161762
H  -0.04246438 -3.17712010 -0.74051914
H   1.14190757  3.26265107  0.13085213
H   1.71121728 -0.64607508  3.06021156
H   0.11889565  2.89869176 -1.48516521
H  -0.55012178  1.89107763 -2.72236214
H   2.28990066  3.47388040  2.33030262
H   2.55622184  1.52344238  3.75894012
H   0.26802170 -1.89206280  1.67722740
O   0.11905062  2.34798323 -4.57553444
H  -0.07110631  2.76997958 -5.46196518
H   1.05283082  1.99017571 -4.57017050
O  -0.22311389  4.79166185 -3.15380535
H  -1.20871818  4.70195924 -3.01049528
H   0.08938086  4.07598721 -3.77843056
O  -0.39844322  4.68485223  3.41474571
H  -1.03315413  3.93120252  3.58549347
H  -0.32069433  4.83846055  2.42967739
O  -2.49807733  2.08530151  1.49311676
H  -2.69802946  2.05026041  2.47229614
H  -1.83210748  2.80961262  1.31462994
O  -5.44743979 -3.41048158 -1.71237431
H  -5.67859209 -3.04447545 -0.81092606
H  -5.54893696 -4.40528430 -1.70424328
O   2.52856243 -2.11732568 -1.38641129
H   2.77625978 -3.08604349 -1.37118492
H   2.62729061 -1.73357345 -0.46826801
O  -3.26416439 -5.88203133 -0.41540394
H  -4.20632350 -5.60023011 -0.59685478
H  -2.97658569 -6.54711188 -1.10458145
O   4.31132543  1.39792310 -0.45210705
H   5.05261171  1.62371825  0.17996254
H   4.10878980  2.19177459 -1.02549992
O  -0.89436018 -5.99077214  1.00951519
H  -1.62197977 -5.54360522  0.48931160
H  -0.68916035 -5.45184745  1.82649364
O   4.45130527 -1.32868255  1.20019569
H   4.44903982 -0.40584673  0.81500854
H   5.02733886 -1.34735192  2.01740875
O  -0.66855872  1.06971322  5.30522623
H  -0.39107156  0.12108647  5.15321198
H  -0.54160488  1.30375086  6.26912918
O   5.23591363  2.63964664  3.80205002
H   4.93866813  1.72148668  3.54008236
H   5.63050830  2.61286865  4.72051468
O  -4.70259011 -3.10417427 -4.46167908
H  -5.13266599 -3.45361794 -3.62925825
H  -4.20427310 -2.26303376 -4.25153027
O  -0.27553713 -1.62419249  5.06980982
H  -1.24026358 -1.86839737  5.16812983
H   0.19390213 -2.32831134  4.53703966
O  -2.86732584  4.57372772 -1.75985298
H  -3.00836140  4.16307603 -2.66067085
H  -3.63087928  4.33311616 -1.16060982
O  -1.73624688  4.72204362  0.79233971
H  -2.10532519  5.54603158  1.22225323
H  -2.10272324  4.63678561 -0.13417301
