78
N16 tacrine microhydration cluster; source_frame=9174; time_ps=9192.348000; n_waters=16; atoms=78; max_selected_waterO_min_distance_A=3.595997; selection=nearest_16_water_oxygens_to_tacrine_heavy_atoms
N   1.03707975 -1.00457160 -0.46132161
N  -1.93334681  1.72969468  0.73275970
C  -2.64004714 -2.61726252  0.74815439
C  -2.63208872 -1.11330287  0.55176662
C  -1.82195479 -3.41824595 -0.27949311
C  -1.20076758 -0.52814643  0.31568740
C  -0.37324626 -2.97295062 -0.25425316
C  -0.20594889 -1.40226046 -0.20911719
C  -0.86971289  0.86171563  0.34476827
C   0.42346471  1.32067808  0.10118078
C   1.43866437  0.36906179 -0.35514428
C   0.83440870  2.72923501  0.11046241
C   2.73147195  0.81046804 -0.62702920
C   2.15318101  3.10184606 -0.19506766
C   3.05884260  2.13404115 -0.52335335
H  -2.42371947 -2.81412760  1.79817651
H  -3.65218980 -3.01135317  0.65672277
H  -3.29450328 -0.82594840 -0.26477124
H  -3.11753089 -0.81936328  1.48238204
H  -1.86655623 -4.47541777 -0.01777054
H  -2.16563040 -3.24193875 -1.29875924
H   0.18641084 -3.37301604  0.59122394
H   0.13395685 -3.27577225 -1.17030121
H   0.08361715  3.46289190  0.36435245
H   3.55117601  0.13158067 -0.81032063
H  -2.88231665  1.38539060  0.76455568
H  -1.89393431  2.72715505  0.57907461
H   2.40554803  4.14850839 -0.27996709
H   4.04102701  2.45583185 -0.83666398
H   1.68427080 -1.66209475 -0.87230565
O  -4.54501778  2.89310678  0.53992103
H  -5.53436762  3.03353628  0.57820915
H  -4.11078412  3.37056382  1.30377696
O   3.13506120 -2.74518077 -1.65754582
H   4.04464906 -2.86271636 -2.05608632
H   3.20202058 -2.77301947 -0.66017796
O   1.48899549  0.26518186 -3.48446919
H   0.59857839  0.19996579 -3.03402020
H   1.51293844 -0.35678641 -4.26714589
O  -3.16685683 -5.50773446  2.07523368
H  -3.82691008 -5.79807822  2.76807617
H  -3.28845030 -6.05668418  1.24826978
O  -1.28924853 -0.21452681 -3.01030137
H  -1.26633364 -0.65288035 -3.90881135
H  -1.68002040 -0.84646098 -2.34100510
O   0.20900529  5.49570783 -1.45615174
H   0.69472020  6.20831807 -0.94992329
H   0.87035554  4.91056856 -1.92543484
O   2.44483846  4.61098607  2.69744037
H   3.17645162  5.15085824  2.28117059
H   2.57706254  3.64455541  2.47715114
O   3.11630052 -2.99493567  1.24546169
H   2.49925226 -3.74148337  1.49429439
H   4.05888456 -3.32888095  1.24144624
O  -4.85190303 -2.58723609 -1.78108765
H  -5.18043334 -3.49968115 -1.53713681
H  -4.53797013 -2.58881632 -2.73053147
O  -4.29517562  1.46174939 -1.68486573
H  -3.76343304  1.67700513 -2.50396039
H  -4.11547715  2.14871724 -0.98074700
O   1.56369203  3.84217962 -3.49738766
H   0.82301038  3.24507173 -3.18940617
H   2.34473508  3.28554376 -3.78045727
O  -1.37994010  3.57007058  3.60044835
H  -2.24183852  3.70364889  4.08961891
H  -1.10506922  2.61078103  3.66532920
O  -1.43229491 -3.27483575  3.96567725
H  -1.01436907 -4.14642398  4.22194122
H  -0.74712378 -2.69252507  3.52812312
O  -3.00670249  4.96037420  1.64918063
H  -2.79717547  4.75136121  0.69397806
H  -2.18350798  5.29957803  2.10447286
O   5.96462148  1.28961404 -2.35198952
H   6.14124769  2.25106366 -2.14123608
H   6.67948335  0.94498380 -2.96043278
O   3.71667093  1.89345582 -4.05047299
H   4.53163141  1.59006532 -3.55671956
H   2.95052713  1.28889497 -3.83245827
