78
N16 tacrine microhydration cluster; source_frame=9880; time_ps=9899.760000; n_waters=16; atoms=78; max_selected_waterO_min_distance_A=3.784990; selection=nearest_16_water_oxygens_to_tacrine_heavy_atoms
N  -1.20861317  0.71086267 -0.18205395
N   2.35046743 -1.20941731  0.28632424
C   1.40529798  2.39948657  2.53930340
C   1.67058395  0.93305353  2.14654932
C  -0.10856368  2.52796653  2.86284218
C   0.81816266  0.52647832  0.93244872
C  -0.99666859  2.16487506  1.65770588
C  -0.43174149  1.14680961  0.74945191
C   1.14504598 -0.53908917  0.11801112
C   0.18346284 -1.04642769 -0.87572756
C  -1.01089551 -0.32707116 -1.05635693
C   0.37480329 -2.21382901 -1.71611645
C  -1.94715573 -0.68516823 -2.03795697
C  -0.54494073 -2.60078713 -2.61924782
C  -1.69924523 -1.78774258 -2.80517711
H   2.07254194  2.88185314  3.25359211
H   1.60169624  3.03720525  1.67742000
H   2.72994111  0.77028468  1.94813428
H   1.37146734  0.35292009  3.01951800
H  -0.27097727  1.78332809  3.64209566
H  -0.24944426  3.50780156  3.31910620
H  -1.92477872  1.84686712  2.13266192
H  -1.25144936  3.02265218  1.03528676
H   1.33711170 -2.70390889 -1.70255282
H  -2.85918690 -0.10914895 -2.09088042
H   2.79463933 -1.08658406  1.18505869
H   2.51081155 -2.13633820 -0.08138206
H  -0.42969157 -3.35823342 -3.38042631
H  -2.42028596 -2.10079953 -3.54578152
H  -2.13025262  1.06751254 -0.39057430
O  -3.58835770  2.17738107 -1.01145365
H  -3.83921792  2.14781288 -1.97902539
H  -3.27972771  3.09874204 -0.77514353
O   2.90468572 -4.02494427 -0.32639011
H   3.75002168 -4.52715584 -0.50857582
H   2.12671254 -4.54047200 -0.68553998
O   4.87108682 -1.98873135 -1.31326213
H   5.78541778 -2.13151452 -0.93430092
H   4.22165178 -2.59505459 -0.85434367
O  -0.73601271 -2.22366139  1.91444502
H  -0.09793545 -2.88144299  2.31467090
H  -1.57027318 -2.69762417  1.63271866
O   0.84463476 -1.00780007 -5.16039755
H   0.59249042 -0.49993607 -5.98410752
H   0.78329681 -0.40467545 -4.36511233
O   0.80335830 -5.49713704 -1.31442394
H   0.66210864 -6.08589741 -2.11029413
H  -0.03836276 -5.45688054 -0.77601423
O  -0.77792241  3.84338716  5.93698976
H  -0.85835244  4.03565410  6.91503093
H   0.09969877  4.18540958  5.60112951
O   4.56614898 -3.18742558  2.06985519
H   4.10932968 -4.00079152  1.70964513
H   5.54425929 -3.23753449  1.86789177
O   4.99106525  2.09968141  1.69836412
H   5.21427308  1.16265395  1.96698640
H   4.59846781  2.09821704  0.77865485
O   3.19058679 -3.62686440 -3.39531424
H   3.23809551 -3.05389592 -2.57711508
H   2.69292091 -4.46824643 -3.18458845
O   0.59952663  2.79073861 -2.45146277
H   0.34727357  3.75365070 -2.54721453
H   0.85688566  2.60633186 -1.50290563
O  -0.46959759 -0.75126645  4.61619327
H  -1.42921616 -0.80359170  4.33979652
H   0.08157562 -1.33376500  4.01877854
O   1.25081085 -3.57338711 -5.70823099
H   1.04956840 -2.59389874 -5.71850874
H   2.17216800 -3.72060582 -5.34847071
O   0.80335687  1.03778890  6.12975643
H   0.24266456  1.77073339  6.51500414
H   0.21550201  0.38309673  5.65456627
O  -3.07852246  2.99642423  5.09794901
H  -3.29653622  2.23705390  5.71099613
H  -2.20887353  3.40699008  5.37207744
O  -3.39500596  4.84288839  2.84192512
H  -3.32049729  4.21969751  3.62043784
H  -2.96958615  5.71777895  3.07340906
