78
N16 tacrine microhydration cluster; source_frame=1109; time_ps=1111.218000; n_waters=16; atoms=78; max_selected_waterO_min_distance_A=3.808489; selection=nearest_16_water_oxygens_to_tacrine_heavy_atoms
N   0.75239582  0.73344453 -1.01828489
N  -1.40353899 -1.36303107  1.75723448
C  -0.34924059 -3.18141715 -1.95249662
C  -0.56989126 -2.76555030 -0.52526102
C   0.99924870 -2.61370627 -2.48719988
C  -0.21697168 -1.25411002 -0.28457270
C   0.98059196 -1.13415972 -2.56189547
C   0.49972315 -0.54941527 -1.25437555
C  -0.63702040 -0.62195174  0.88516321
C  -0.39600496  0.79875406  1.06165400
C   0.36779184  1.51320489  0.09239283
C  -0.78266172  1.46534570  2.23276033
C   0.69581385  2.81015428  0.19612207
C  -0.31171637  2.73151239  2.41468372
C   0.37148066  3.43092569  1.44407549
H  -0.27188234 -4.26582114 -2.03113947
H  -1.15432386 -2.87750785 -2.62150965
H  -1.57488947 -3.06129424 -0.22423563
H   0.13732595 -3.29942481  0.10950079
H   1.87136002 -3.05286185 -2.00277910
H   1.27568932 -2.99323432 -3.47088537
H   1.96638603 -0.78722159 -2.87164316
H   0.28036757 -0.90569274 -3.36538038
H  -1.26501017  0.93358644  3.03958979
H   1.28547544  3.17406877 -0.63228903
H  -1.49166136 -1.01794402  2.70235291
H  -1.55497675 -2.35679785  1.65926971
H  -0.30050592  3.18427499  3.39513245
H   0.91535730  4.35791620  1.55029955
H   1.36904354  1.13275369 -1.71139250
O   2.97841568  1.49695905 -2.88735590
H   3.60021849  0.75742372 -3.14512930
H   3.45046682  2.13111242 -2.27496920
O  -0.83417349 -4.22404544  2.70191278
H  -0.91219931 -4.21250502  3.69879713
H   0.12828131 -4.14583174  2.44198360
O  -3.30120115 -4.16949145  1.54640188
H  -2.36168985 -4.41436545  1.78589001
H  -3.84162359 -4.06522719  2.38131037
O   3.54450150 -2.03613059 -4.75607405
H   4.13927407 -1.50002925 -4.15703974
H   3.57864685 -2.99819628 -4.48540125
O   1.38471718  4.74555333  4.72814741
H   0.50088758  5.04712327  4.37051430
H   1.40939589  4.88634809  5.71787848
O   1.03680344  0.28575548  5.02126493
H   0.05082006  0.41080030  5.13172045
H   1.34053440 -0.48255126  5.58469381
O  -2.87418776  4.39547952  0.37428846
H  -2.80287676  5.24245962 -0.15253077
H  -2.72294645  4.59180864  1.34309282
O   1.86295624 -3.97125594  1.83805075
H   2.22712822 -4.88897673  1.67941084
H   2.60624142 -3.30424754  1.78679934
O  -1.67308836  0.59629854  5.61791744
H  -1.96013098 -0.36161582  5.62010136
H  -2.46651678  1.18162855  5.45100298
O   1.45389147  5.92080911 -1.54447756
H   0.89769526  6.66119798 -1.92192755
H   1.76942558  5.32936414 -2.28652296
O   3.41118927  4.68151124  3.08974781
H   3.03488131  4.97293218  2.21027842
H   2.68795271  4.68790468  3.78031864
O  -3.51576262 -3.57462374 -3.80902014
H  -3.86266069 -2.67812316 -4.08460627
H  -3.63515596 -3.68946139 -2.82283697
O  -4.36830931  2.41825231  1.65951815
H  -5.01864748  2.98620733  2.16398516
H  -3.50298815  2.90969976  1.56103506
O   4.04273720 -4.80367438 -2.67367373
H   4.76090808 -5.49822203 -2.63085470
H   4.01309366 -4.30115668 -1.80961523
O  -0.65361338  6.32778867  3.60308018
H  -0.82524996  7.30602153  3.48645248
H  -1.48282366  5.81504281  3.38058844
O   3.83227892  0.84924253  1.52803507
H   3.78210707  1.75901922  1.11598005
H   3.94965239  0.93736108  2.51720514
