78
N16 tacrine microhydration cluster; source_frame=201; time_ps=201.402000; n_waters=16; atoms=78; max_selected_waterO_min_distance_A=3.669448; selection=nearest_16_water_oxygens_to_tacrine_heavy_atoms
N   0.46637104 -0.23509688  1.42714251
N  -0.80197145  0.36827378 -2.49987208
C  -2.95609357 -2.50925822  0.10860289
C  -2.06209757 -1.84342785 -1.02020942
C  -2.01528813 -2.99135442  1.23805416
C  -0.92439796 -0.87071128 -0.44653880
C  -1.45548798 -1.71772594  1.82312430
C  -0.57322933 -0.92571468  0.86379183
C  -0.30621983  0.12460475 -1.21802031
C   0.73385279  0.96759610 -0.63684713
C   1.14020906  0.72979407  0.71300686
C   1.45805792  2.01871018 -1.39018070
C   2.15017567  1.52989202  1.27363194
C   2.38705991  2.81620889 -0.78557598
C   2.75905941  2.53820949  0.54988993
H  -3.60975601 -1.74402590  0.52722634
H  -3.55133487 -3.24644656 -0.43023049
H  -1.51397301 -2.64508100 -1.51519596
H  -2.65094687 -1.29742641 -1.75725686
H  -2.61412074 -3.56376023  1.94646920
H  -1.26036812 -3.68843217  0.87435282
H  -2.23989035 -1.06280322  2.20245207
H  -0.90243222 -2.19506426  2.63206042
H   1.26100640  2.32113557 -2.40807544
H   2.42198728  1.38113790  2.30822934
H  -0.55663253  1.18763547 -3.03704511
H  -1.74869062  0.06783729 -2.68306886
H   2.81549786  3.63135915 -1.34982001
H   3.39132737  3.23419337  1.08115614
H   0.57841764 -0.31432147  2.42777670
O   0.90276866 -0.40724416  4.27036227
H   0.60928474 -1.15988798  4.85976399
H   0.79758976  0.45904832  4.75870121
O   2.58227156  4.25695043 -3.48647729
H   2.86790095  3.93798547 -4.39017919
H   2.10292931  5.12987142 -3.57725077
O   0.58946369  4.72294335  1.00321425
H   1.14475809  3.92191224  0.77961243
H  -0.37928678  4.49437814  0.90687836
O   4.55347608 -0.38469357  2.34292782
H   5.17152832 -0.80140657  3.00953282
H   5.08851384  0.07856183  1.63643730
O  -5.99968459 -1.34116788  0.15629900
H  -6.07903649 -1.53168221  1.13477124
H  -6.40617682 -0.44968028 -0.04373562
O  -3.53657700  0.56716971 -4.28359317
H  -4.29329611  0.28370099 -3.69450765
H  -3.65441014  0.16798501 -5.19286048
O  -1.89580633  2.60396104 -4.78278946
H  -2.57934834  1.95421987 -4.45021283
H  -2.09494592  3.51336102 -4.41763800
O   2.84585379 -2.59050531  2.07396162
H   3.43319701 -3.37503297  2.27281941
H   3.35173128 -1.74438090  2.24177445
O  -2.76821305  0.47892718  4.09971846
H  -2.41265608  0.92278438  3.27718008
H  -3.63511779  0.90422921  4.35970867
O  -3.73116614 -2.24620075  4.34439362
H  -3.35794045 -1.31949921  4.38828553
H  -2.98948647 -2.90935524  4.44507683
O  -1.29391767 -6.32873769  0.47394265
H  -0.31336500 -6.19952984  0.32621921
H  -1.74107172 -6.51515014 -0.40087401
O   4.68047427  5.39868741 -0.12537562
H   4.17115019  6.12880044 -0.58092438
H   5.16310190  5.77291303  0.66647375
O  -2.59554269  1.97093396  1.68099535
H  -2.51129748  2.40500407  0.78406418
H  -3.54654195  1.70167069  1.83297718
O  -0.51874282  4.92511182 -2.38024496
H  -0.71188475  5.62513833 -1.69274282
H  -0.26844384  5.36504273 -3.24269020
O   6.03440688  2.97790103 -1.07855927
H   5.54154275  3.75711064 -0.69136821
H   5.71894430  2.81514983 -2.01343655
O  -1.75153710 -4.10811026  4.72347248
H  -2.04232051 -4.41813905  5.62863911
H  -0.76874115 -3.92372305  4.73411454
