78
N16 tacrine microhydration cluster; source_frame=8569; time_ps=8586.138000; n_waters=16; atoms=78; max_selected_waterO_min_distance_A=3.695175; selection=nearest_16_water_oxygens_to_tacrine_heavy_atoms
N   0.60493234  1.16117427 -0.54963900
N  -1.27400538 -2.08896688  1.07141374
C  -1.92411086  1.67646262  2.64848398
C  -1.31610533  0.29565856  2.57776759
C  -0.83968398  2.75154921  2.54534553
C  -0.60733840  0.16729685  1.20861600
C  -0.09668013  2.69944712  1.16604112
C   0.01307824  1.32436988  0.64362214
C  -0.52523085 -1.06152109  0.47836850
C   0.22753099 -1.17761281 -0.77224185
C   0.78985933  0.02618167 -1.30903079
C   0.46111062 -2.37822107 -1.42169310
C   1.54043248  0.04710147 -2.50008227
C   1.22495321 -2.29619077 -2.62580706
C   1.72125772 -1.14672902 -3.16116454
H  -2.64344737  1.84928939  1.84799264
H  -2.51987311  1.80318400  3.55242513
H  -0.68547198  0.00655982  3.41849588
H  -2.15245387 -0.38231996  2.74796365
H  -1.22388598  3.71890399  2.86893915
H  -0.08965441  2.48030707  3.28830169
H  -0.80688044  3.08833167  0.43632577
H   0.91869691  3.08779952  1.08671544
H   0.03965619 -3.31368783 -1.08453108
H   1.93143895  0.98749015 -2.85950209
H  -1.07955214 -3.04761651  0.81985639
H  -1.74750659 -1.75556138  1.89890264
H   1.41069558 -3.28224519 -3.02530219
H   2.12559369 -1.14499334 -4.16261889
H   0.98902181  2.01564070 -0.92708041
O   1.78323320  3.30304763 -1.53227927
H   1.58926919  4.18067881 -1.09393908
H   2.65987733  3.35586306 -2.01050975
O  -0.22186991 -4.66445688  0.88405393
H  -0.62458750 -5.37822965  1.45706914
H   0.34170774 -5.08584646  0.17355321
O   3.05698255  1.03147551  1.81620477
H   2.87199167  0.11818263  1.45333646
H   2.85296682  1.04885623  2.79501842
O   0.48406556  5.55458399 -0.48197200
H  -0.46414706  5.32048651 -0.26727797
H   0.77132467  6.33025691  0.08000062
O   1.68936590 -3.03539899  2.35324262
H   0.81534150 -3.35545495  1.98766874
H   2.02808145 -3.69043783  3.02866481
O  -2.79420230 -4.28477338  3.26565669
H  -2.15778109 -3.62424520  3.66399167
H  -2.96855971 -5.01785329  3.92307208
O  -1.74404475 -4.63287786 -2.98274256
H  -2.05693576 -5.48265127 -2.55849673
H  -2.43531462 -3.92184118 -2.85400798
O  -1.27166125 -2.47003511  4.79434369
H  -1.72330519 -1.86553815  5.45054553
H  -0.34955832 -2.13067678  4.60843776
O   0.93336442 -0.11730340 -6.48722579
H   0.31551889 -0.36099962 -5.73964335
H   1.13600686  0.86110922 -6.44666268
O   0.69067434  3.03513190  5.77829383
H  -0.21352622  3.14238784  6.19171880
H   1.05313161  3.93389842  5.53163026
O   3.97663263 -2.62518361 -5.53258301
H   4.42038110 -2.05584482 -4.84052779
H   4.48512414 -3.47988180 -5.63711716
O  -2.22147223  4.80527827 -0.85426642
H  -2.65826365  5.55177161 -0.35231043
H  -2.85940596  4.03936526 -0.93436934
O   5.25454143 -0.87855581 -3.85921408
H   5.00498823 -0.87158159 -2.89087798
H   6.24947074 -0.92823652 -3.94666220
O   4.65142587  1.89312026 -2.45361926
H   5.59241632  2.15414187 -2.66903617
H   4.63140920  0.94157931 -2.14674880
O  -1.64716860 -0.75548509 -4.54245879
H  -2.01994559 -1.40107110 -3.87593295
H  -2.35387561 -0.51988653 -5.20958640
O   4.92839483 -0.62558225 -1.18725230
H   4.24392465 -0.94150976 -0.53022029
H   5.84375957 -0.81636289 -0.83269622
