78
N16 tacrine microhydration cluster; source_frame=9577; time_ps=9596.154000; n_waters=16; atoms=78; max_selected_waterO_min_distance_A=3.597598; selection=nearest_16_water_oxygens_to_tacrine_heavy_atoms
N  -0.68038966  0.98493385  0.78061361
N   1.30940650 -1.77387810 -1.62569170
C   3.45510410  0.57080078  1.69269629
C   2.71779512 -0.47086811  0.63195677
C   2.47989486  0.88055229  2.78390427
C   1.29851030 -0.24696827  0.22694941
C   1.22612260  1.50197792  2.10856123
C   0.61390088  0.64916897  1.05827398
C   0.61122821 -0.87524796 -0.82581167
C  -0.76469161 -0.54655457 -1.07332640
C  -1.34744097  0.48103428 -0.23074369
C  -1.67188002 -1.30621529 -1.88162928
C  -2.70565344  0.89037704 -0.40646296
C  -3.02419116 -0.89180851 -1.96372538
C  -3.51771571  0.15269566 -1.27556448
H   4.38298677  0.11256599  2.03497572
H   3.74908088  1.50890923  1.22191877
H   3.38472818 -0.42092037 -0.22874384
H   2.73402284 -1.46515846  1.07830019
H   2.08831094 -0.00935268  3.27668304
H   2.86954616  1.53873348  3.56047935
H   0.44150804  1.79342747  2.80679960
H   1.58050226  2.42184544  1.64341803
H  -1.21299578 -2.04064751 -2.52694540
H  -3.16423155  1.59860039  0.26772280
H   2.30193065 -1.64873695 -1.48664217
H   1.01994298 -1.80916214 -2.59267931
H  -3.64376761 -1.43985558 -2.65810995
H  -4.58271910  0.32733917 -1.23471193
H  -1.17316081  1.73725796  1.24027033
O  -2.02203395  3.06722069  2.27102251
H  -1.65400244  3.34783745  3.15748043
H  -2.42642237  3.85851669  1.81241484
O   1.60472749 -2.48997974 -4.55958300
H   1.07675384 -2.44711113 -5.40776091
H   2.17825721 -1.67443943 -4.48239832
O  -2.48943164 -0.45560169  2.81625242
H  -2.64409663 -1.34360409  2.38320322
H  -1.57572772 -0.43737030  3.22222347
O  -3.86819197  2.28506851 -3.59156256
H  -4.33891989  2.88050842 -4.24261312
H  -4.09415270  2.56639099 -2.65893202
O   6.58117126  1.34319305  2.23346968
H   6.25397037  0.40906811  2.09081526
H   7.56346349  1.38386822  2.05058260
O  -4.59851767  1.44761276  2.24984903
H  -4.62719943  2.00414276  3.08018084
H  -3.77924086  0.87432194  2.26097555
O  -6.48460318 -0.06322289 -2.93711596
H  -6.44721820  0.91660595 -2.74080877
H  -6.62043502 -0.56890297 -2.08515482
O   1.79908632  0.67719650  6.12726326
H   2.28322194  1.54618359  6.02491350
H   2.06241582  0.24872589  6.99159546
O  -4.72101714 -0.72964668 -4.96177225
H  -5.23138739 -0.39673424 -5.75467329
H  -5.16891028 -0.41990280 -4.12305193
O   4.90594314 -2.67535400 -0.90482836
H   4.68437289 -3.64065933 -1.04300241
H   5.60290120 -2.59198761 -0.19257860
O   3.30840419  3.29107666  5.17582769
H   4.12150596  3.05879211  5.70959682
H   3.57687162  3.51030827  4.23781748
O   3.57927106 -3.06344414  2.93436356
H   2.68222736 -2.90970516  2.52002497
H   3.46280263 -3.34087658  3.88802309
O   5.91946827 -1.51508808  3.22409220
H   5.04813097 -1.99414730  3.11791630
H   6.00916277 -1.19120598  4.16592808
O   4.79849981  3.73475361  2.69176741
H   5.46876000  4.31530666  3.15405388
H   5.21234988  2.84850407  2.48370285
O   5.24812888 -0.17075062 -1.89322691
H   5.38651822 -0.76576328 -2.68493872
H   5.16140936 -0.72880936 -1.06797152
O   0.44619201  4.64023972  0.53194113
H   0.37162088  5.30296040  1.27708502
H   1.40318845  4.37367630  0.41747732
