78
N16 tacrine microhydration cluster; source_frame=3125; time_ps=3131.250000; n_waters=16; atoms=78; max_selected_waterO_min_distance_A=3.621925; selection=nearest_16_water_oxygens_to_tacrine_heavy_atoms
N   0.70291799  1.24769885  0.15271060
N  -1.24814707 -2.30210870 -0.26894306
C  -0.77353865  0.45520598 -3.65365370
C  -1.34740645 -0.39621061 -2.54102142
C  -0.79846484  1.91140944 -3.18932183
C  -0.59546763 -0.19588464 -1.25977822
C   0.19538682  2.18023116 -2.02951105
C   0.09480661  1.04839617 -0.99421103
C  -0.59527690 -1.09467691 -0.12093337
C   0.08425420 -0.86749357  1.12678896
C   0.73691171  0.41185099  1.22479336
C   0.13670724 -1.75909036  2.23879759
C   1.27308362  0.84393126  2.43304651
C   0.79857438 -1.38229745  3.41269748
C   1.33565896 -0.10096162  3.46853916
H   0.27526658  0.19963843 -3.80463011
H  -1.28011138  0.40923697 -4.61769278
H  -2.40997130 -0.23089307 -2.36290510
H  -1.39303595 -1.43754857 -2.85982068
H  -0.60920912  2.54642493 -4.05479129
H  -1.84402568  2.03254706 -2.90607698
H   1.18862050  2.37524516 -2.43393071
H   0.02054590  3.13593585 -1.53538735
H  -0.34460837 -2.72315210  2.16584723
H   1.72138494  1.82438761  2.49733107
H  -1.65690715 -2.46818631 -1.17747672
H  -1.77939421 -2.58896154  0.54074298
H   0.77686971 -2.08893388  4.22914903
H   1.82944482  0.12685687  4.40163820
H   1.14603322  2.14511782  0.28831409
O  -2.80170447 -3.39605993  1.93116461
H  -3.34328944 -4.20538991  1.70385538
H  -2.57509429 -3.40939325  2.90505873
O   1.43275731  4.06321723  0.73350404
H   2.27128976  4.60764510  0.71201621
H   0.75948232  4.46343714  0.11179279
O  -0.69791133 -1.56417840  6.09441267
H  -1.16812426 -1.81173795  6.94153391
H  -1.05519873 -0.69319814  5.75715862
O  -3.00489813 -3.58354562 -2.72242583
H  -3.29981620 -4.34265703 -2.14210345
H  -3.76082713 -3.30294507 -3.31389464
O  -2.64790827  2.77145964 -0.24912628
H  -3.32967383  3.15633971 -0.87127057
H  -2.63807398  1.77566249 -0.34018822
O   1.91672414 -1.19160074  6.59759985
H   2.16482347 -1.62423032  7.46436344
H   0.97794622 -1.43929284  6.35813175
O   1.55877298 -2.02199167 -3.82228221
H   2.31932348 -2.55507654 -3.45163073
H   0.71485513 -2.55428594 -3.75545181
O  -2.31026560  2.29261119 -6.25373281
H  -2.89879710  3.07975012 -6.06922401
H  -1.39896399  2.61156375 -6.51411451
O  -3.12056452 -0.79035467  2.87868486
H  -3.30309016 -0.41081422  1.97169314
H  -3.11706931 -1.78904146  2.82756387
O  -1.93829924 -3.36160272  4.52597080
H  -2.50901324 -3.63730520  5.29945217
H  -1.18047530 -2.79819959  4.85502850
O   0.84884923  5.47813756 -2.95351089
H   0.37329954  6.10464532 -3.57103909
H   1.36232274  6.00414044 -2.27552391
O   1.63294500  3.77220923 -4.87634481
H   2.42197984  3.22786910 -4.59153332
H   1.44487375  4.47232539 -4.18752946
O   4.11246484 -1.39395231  5.17801748
H   3.34145063 -1.31304639  5.80967413
H   4.94783490 -1.08099931  5.62992273
O  -1.89633567  0.83764464  4.59691845
H  -1.65271479  1.61788279  4.02083002
H  -2.36728579  0.14973838  4.04465853
O   0.53089612  4.20756156  3.36681424
H  -0.38786608  3.84911639  3.20130359
H   1.07004636  4.14325816  2.52706276
O  -4.22972113  0.50224787 -4.73575033
H  -4.94802672  0.45493037 -5.42986692
H  -3.55726153  1.19413096 -4.99861254
