78
N16 tacrine microhydration cluster; source_frame=4940; time_ps=4949.880000; n_waters=16; atoms=78; max_selected_waterO_min_distance_A=3.725648; selection=nearest_16_water_oxygens_to_tacrine_heavy_atoms
N   0.69655139 -0.39224828  1.15720917
N  -1.41647761  0.74778258 -2.16226314
C   1.87433452  3.19096934 -0.59567092
C   0.96270979  2.22703158 -1.39691995
C   2.96984227  2.55544650  0.28717686
C   0.46913106  1.09083354 -0.61302827
C   2.33686931  1.46058165  1.23595025
C   1.16257564  0.69952284  0.55700471
C  -0.64226918  0.28495680 -1.07043384
C  -1.06535082 -0.85168088 -0.36668752
C  -0.31722706 -1.24306787  0.74293257
C  -2.22579854 -1.53165353 -0.63680099
C  -0.61053114 -2.43281759  1.53724457
C  -2.54456608 -2.64240850  0.16838862
C  -1.64979356 -3.16324819  1.15589787
H   2.41390569  3.89023768 -1.23440955
H   1.14660538  3.82665621 -0.09127782
H   0.16323502  2.75429618 -1.91743110
H   1.59870381  1.85231959 -2.19891952
H   3.87684400  2.14293181 -0.15472768
H   3.41012962  3.21819197  1.03217055
H   3.11327941  0.72836291  1.45763089
H   1.94000323  1.88235366  2.15937115
H  -2.88770669 -1.19405855 -1.42057775
H   0.00594730 -2.74974454  2.36544253
H  -1.16297107  1.59984004 -2.64167236
H  -2.10118001  0.12067305 -2.55977462
H  -3.40407794 -3.22159494 -0.13522790
H  -1.78221791 -4.05850519  1.74528481
H   1.28968359 -0.69786275  1.91542651
O   2.26949901 -0.94689191  3.46399738
H   3.26745755 -0.91501344  3.51933862
H   1.92199902 -1.63323320  4.10288669
O   3.05755753 -1.54798616 -0.19171832
H   3.67485757 -2.16041196  0.30211951
H   3.09043069 -1.75845636 -1.16876577
O  -4.32333093 -4.03963388  2.32356526
H  -4.24086528 -4.98528207  2.63812710
H  -4.03938060 -3.41921914  3.05463077
O  -1.25240069  2.92574393 -4.33481620
H  -0.85863548  3.68543326 -4.85233234
H  -1.95245557  2.47342860 -4.88738654
O   5.84009833  3.29264151 -1.08649515
H   6.38908238  2.49993788 -0.82147239
H   5.69663281  3.88004576 -0.29001926
O   2.00440664  3.14958655 -4.43164752
H   1.94903050  2.15132987 -4.45210098
H   1.36888571  3.53247248 -5.10210346
O  -2.70892434 -2.01856626  4.11817123
H  -2.73605018 -1.15837777  3.60891749
H  -3.43219953 -2.02003492  4.80872978
O   1.73430076  5.50254714 -3.03675769
H   1.60057307  4.55976617 -3.34217761
H   0.85382327  5.97642647 -3.02270149
O  -4.01452403 -0.61140836 -3.89402984
H  -4.67405515  0.01944434 -3.48532127
H  -3.98644262 -0.46936429 -4.88349174
O   1.39315420 -5.09198583  2.34405972
H   0.82831031 -5.90432180  2.19893338
H   1.02202129 -4.55951989  3.10481002
O   5.60400290  1.43509280  2.34702136
H   5.58778758  0.78817164  1.58463694
H   5.80105157  2.35257994  2.00149466
O  -2.65117030  0.35772692  2.74919368
H  -3.46185260  0.92918097  2.62177755
H  -1.84461932  0.84355151  2.41236974
O   5.36342616  5.05893599  0.99694802
H   5.93669791  5.78910481  0.62517764
H   5.00486512  5.33759391  1.88789345
O  -2.07925372  4.31821715 -2.29018138
H  -1.95990687  3.85982119 -3.17087959
H  -1.59685831  5.19408833 -2.30222915
O  -5.99656873 -3.87668813  0.42322137
H  -5.32363658 -3.96766294  1.15730979
H  -6.00889592 -2.93125547  0.09763695
O   3.73706860  3.18053233  4.22955372
H   4.21337170  2.56400000  3.60263755
H   2.82588990  2.81805693  4.42542292
