78
N16 tacrine microhydration cluster; source_frame=8166; time_ps=8182.332000; n_waters=16; atoms=78; max_selected_waterO_min_distance_A=3.789860; selection=nearest_16_water_oxygens_to_tacrine_heavy_atoms
N  -0.16057835  0.76671858  1.21689347
N   0.18168106 -1.46164327 -2.29875847
C  -0.45991001 -3.35353975  1.59314707
C  -0.59287319 -2.88552623  0.11253575
C  -1.34017715 -2.53576856  2.56438139
C  -0.32175026 -1.33098416  0.04132775
C  -0.83673058 -1.08202939  2.60716179
C  -0.58131466 -0.54394250  1.19216374
C   0.05684414 -0.65270905 -1.15732071
C   0.41686859  0.74582047 -1.08751413
C   0.27685299  1.47359390  0.12748793
C   0.77501144  1.53688641 -2.22094318
C   0.62151375  2.86219187  0.31010178
C   1.06064739  2.92218204 -2.12466547
C   0.90391483  3.53874965 -0.87599870
H  -0.87294159 -4.35347967  1.72591427
H   0.57629433 -3.37267809  1.93080548
H   0.15282764 -3.43692999 -0.46016285
H  -1.56289825 -3.24617605 -0.22963592
H  -2.39529381 -2.55883842  2.29180744
H  -1.29292450 -2.95636230  3.56885556
H  -1.54033051 -0.53517251  3.23485115
H   0.08147087 -1.09448152  3.19440249
H   0.83983459  1.11462040 -3.21285507
H   0.55841007  3.33157892  1.28071717
H  -0.03734264 -2.44168954 -2.40663883
H   0.41028538 -1.10187583 -3.21440431
H   1.39966335  3.43806524 -3.01085540
H   1.19222488  4.57917733 -0.84794494
H  -0.19868431  1.23387141  2.11155346
O   0.87087097  2.23749371  3.48473767
H   1.42180767  1.64011831  4.06749943
H   0.07840576  2.56594629  3.99866036
O  -3.08137760 -1.43623261 -2.20948383
H  -3.33858643 -1.06400542 -3.10127470
H  -2.57880173 -2.29122787 -2.33754751
O   3.15716782 -1.22250609 -0.30573913
H   2.83001461 -2.08876805 -0.68331167
H   2.45151653 -0.82768302  0.28262308
O  -0.67176685 -2.22141557  5.74679497
H  -0.72731075 -1.24189143  5.94030884
H  -1.55014763 -2.54135423  5.39170769
O   4.21261635  3.72390558 -2.51931640
H   4.85803356  3.94142611 -3.25151941
H   3.72982254  2.87677963 -2.74132713
O  -2.70402203  1.18896217 -2.05639288
H  -2.76141033  0.19092746 -2.08155224
H  -2.21382103  1.51512046 -2.86467740
O   1.44613781 -5.98589902  2.21870163
H   1.23419228 -6.25137620  1.27816943
H   0.62612858 -6.07737164  2.78369549
O   2.51651707  5.68291302  1.23304346
H   2.81934490  6.05820842  2.10908488
H   3.27264538  5.19030614  0.80222205
O  -2.24448643 -3.83973603 -2.76198265
H  -2.25323257 -4.83927159 -2.73279366
H  -2.12849293 -3.53488784 -3.70729402
O   0.02288952  6.56197829  0.62338761
H   0.93079128  6.27998228  0.93353537
H  -0.17579803  7.48042769  0.96540240
O  -3.96679554 -1.72966294  0.29286555
H  -4.75227127 -2.31673102  0.09695938
H  -3.47398338 -1.53803163 -0.55590603
O   2.62073746 -1.74313693  3.25765875
H   2.43877640 -2.61752801  3.70747021
H   3.54990520 -1.74546151  2.88800743
O   4.03211632  0.81075950 -3.54145822
H   3.51782074 -0.02761226 -3.72210297
H   4.29477158  0.83939238 -2.57699367
O  -5.07182703 -2.81670337  2.66323689
H  -5.65144024 -2.10773377  3.06499604
H  -4.39369068 -2.39238553  2.06316546
O   2.11471024 -4.23434453  4.19188050
H   1.45784607 -4.31957059  4.94105748
H   2.03907623 -5.02949433  3.59020356
O   1.07533875  1.90154810 -5.98124453
H   0.07937660  1.94737811 -6.05843469
H   1.33622494  1.04359312 -5.53869298
