78
N16 tacrine microhydration cluster; source_frame=5141; time_ps=5151.282000; n_waters=16; atoms=78; max_selected_waterO_min_distance_A=3.787659; selection=nearest_16_water_oxygens_to_tacrine_heavy_atoms
N  -1.25816148  0.61666090  0.16550134
N   2.34183127 -1.14957016 -0.14093520
C   1.65139395  2.92592222 -1.80942227
C   2.10161549  1.72352368 -1.02377202
C   0.60107094  3.67699677 -0.98508717
C   0.97555596  0.76282818 -0.53263213
C  -0.69707483  2.79396826 -0.90169884
C  -0.30374425  1.39691049 -0.38927390
C   1.12884051 -0.54900044 -0.10258271
C   0.05515629 -1.34250134  0.41434358
C  -1.14427846 -0.71692007  0.53404163
C   0.08096415 -2.75582236  0.83211015
C  -2.30138200 -1.33590525  1.14970468
C  -1.01772493 -3.36847561  1.36175416
C  -2.21406263 -2.67861527  1.42794870
H   2.55400044  3.51242215 -1.98094346
H   1.33726651  2.73859436 -2.83622910
H   2.69576842  1.18900091 -1.76496579
H   2.64146716  2.09376389 -0.15223147
H   0.97094065  3.95547468  0.00169872
H   0.28233248  4.56676084 -1.52806641
H  -1.44393628  3.22916967 -0.23769738
H  -1.20498365  2.69532949 -1.86107327
H   0.94198615 -3.37490624  0.62771724
H  -3.17058843 -0.72635573  1.34802030
H   3.16825205 -0.62996929 -0.40005614
H   2.36875016 -2.12701529  0.11199973
H  -1.02993291 -4.38090771  1.73756383
H  -3.08327478 -3.10331982  1.90804933
H  -2.15475267  1.06603891  0.28500961
O   5.01200277 -0.31452339  0.06553338
H   5.23725993 -1.21204823 -0.31355549
H   5.63433510  0.37191803 -0.31063248
O  -3.66086095  2.05371315 -0.26110484
H  -4.51450342  1.65013129 -0.59037282
H  -3.86737436  2.81868440  0.34895347
O   3.18524701 -3.86918705 -0.64300515
H   3.18082291 -4.63796395 -0.00350310
H   2.51480061 -4.03361290 -1.36651446
O  -3.73756307 -1.41148918  3.97223161
H  -4.72506612 -1.50479525  3.84522127
H  -3.45699304 -0.48211449  3.73235105
O  -5.46458238 -1.40948599  0.39295123
H  -5.05875581 -2.09822148 -0.20783784
H  -6.45827382 -1.41327875  0.28086351
O  -3.06811422 -5.39757126  3.16685365
H  -2.82707589 -6.35653179  3.31616376
H  -3.20203012 -4.94628495  4.04912828
O   2.22369153  0.26841480  2.96207212
H   2.05450923 -0.68889063  3.19647191
H   3.05986363  0.33553392  2.41772626
O  -2.85955613  1.03547556  3.48572992
H  -1.88682264  0.83974392  3.61014722
H  -2.98647493  2.01711256  3.34332250
O   3.97680289  3.75623197  0.96872400
H   3.93478495  4.59812731  1.50672696
H   3.85045678  2.96862442  1.57180856
O   1.46379477 -2.15984886  3.93281911
H   2.11680562 -2.55442923  3.28637956
H   0.89139039 -2.88609475  4.31350301
O  -1.14508432  5.04060279  1.87702535
H  -1.65826791  5.45305829  2.62970231
H  -1.13059133  5.66933196  1.09953616
O   4.46622044  1.31151635 -3.90515019
H   5.23863012  0.91233617 -3.41114761
H   3.82210261  0.58907110 -4.15651776
O   2.81938464  6.11951733 -3.42541792
H   2.19033820  6.86859471 -3.21760990
H   3.10696751  5.67998544 -2.57447268
O  -4.18727392 -2.37718552 -1.94513203
H  -4.05198854 -3.36500519 -1.86825015
H  -3.56014150 -2.00722235 -2.63057543
O   1.19997412 -4.32074040 -2.41391017
H   0.63790185 -5.02825135 -1.98553826
H   0.75092560 -3.99715870 -3.24676730
O  -0.54032415 -7.12229126  1.19646619
H  -0.21737665 -7.27216404  2.13094114
H  -1.52012056 -6.92277878  1.21038888
