78
N16 tacrine microhydration cluster; source_frame=5242; time_ps=5252.484000; n_waters=16; atoms=78; max_selected_waterO_min_distance_A=3.732921; selection=nearest_16_water_oxygens_to_tacrine_heavy_atoms
N  -0.42016370  0.33677896  1.37906322
N   0.77681487 -0.82595972 -2.44816914
C   3.59383195  1.15666290  0.29698811
C   2.81182617  0.30254670 -0.65830173
C   3.29172748  1.02136620  1.84485397
C   1.29824107  0.19022818 -0.28906002
C   1.74460834  1.23172017  2.09548531
C   0.86987632  0.49547084  1.03393517
C   0.34192985 -0.37087015 -1.21143188
C  -1.05063969 -0.47020678 -0.81468239
C  -1.42482144 -0.09851174  0.53608761
C  -2.04907853 -1.01195530 -1.64790764
C  -2.73720795 -0.13917450  0.97895298
C  -3.36996133 -1.15535072 -1.19003048
C  -3.67698342 -0.66274504  0.09421692
H   4.66296190  0.98254927  0.17555389
H   3.48984187  2.20642813  0.02261887
H   2.94571536  0.74327858 -1.64619293
H   3.23720926 -0.69505171 -0.76760235
H   3.43962234 -0.00443892  2.18242035
H   3.85943216  1.73223182  2.44525585
H   1.52210563  1.12982663  3.15765724
H   1.69431251  2.29567083  1.86401329
H  -1.79814202 -1.28122358 -2.66325321
H  -3.06057221  0.14886971  1.96832905
H   1.72990077 -0.70846991 -2.76109638
H   0.23487037 -1.51902560 -2.94420853
H  -4.12757069 -1.59286336 -1.82328358
H  -4.67611939 -0.70095328  0.50246773
H  -0.75194985  0.60010966  2.29594574
O   3.69634431 -1.29940728 -3.40756645
H   4.64265579 -1.13740114 -3.12783756
H   3.60655063 -1.13595037 -4.39002266
O  -1.05452496  2.72340264  3.28118954
H  -0.73349816  3.40269919  2.62126694
H  -2.01829011  2.89032688  3.48925934
O   0.33939784  3.12684866 -0.86917629
H   0.87665122  2.40694441 -1.30860367
H   0.50778716  3.99755867 -1.33124676
O  -3.92091710 -3.69090752  1.14653072
H  -3.60544163 -3.33878092  2.02771244
H  -4.72080285 -4.27421097  1.28773651
O  -4.32892472 -0.76415853 -4.25096979
H  -3.84920365  0.11020728 -4.17781582
H  -5.12562043 -0.75882010 -3.64661255
O  -0.26600987 -3.62272076 -3.73249855
H  -1.04569966 -4.14744858 -3.39082184
H   0.51479190 -4.23345999 -3.86420670
O  -0.83794076  0.10597797  4.60517654
H  -1.34297234 -0.64895705  5.02352676
H  -1.39484746  0.93605109  4.63405952
O   5.18659919 -0.49159674  4.03367338
H   4.87433570 -1.38761143  3.71800098
H   4.49618238 -0.09127216  4.63622246
O  -6.94054372 -0.83469085 -0.26011982
H  -7.29544026 -1.71638612 -0.57102528
H  -6.59966523 -0.31712226 -1.04492893
O   1.66035789  2.19000562 -3.63481750
H   1.34184688  1.44574292 -4.22186413
H   1.03897899  2.96912308 -3.71767082
O   6.49434703 -0.52218966  1.18600330
H   6.02785009  0.30487200  1.49961052
H   6.34024137 -1.26092009  1.84215031
O   6.43651765  1.78817814  3.18862686
H   5.83790201  1.18568604  3.71651182
H   7.38757628  1.50516870  3.31269608
O  -0.20438344  0.82139095 -5.50112906
H  -0.08490998  1.18590041 -6.42463293
H  -0.39015061 -0.15990786 -5.55156031
O  -2.53839356  1.43596711 -4.26562443
H  -1.56604439  1.23898168 -4.39106598
H  -2.84996564  2.05121400 -4.98977461
O  -3.07223565 -4.84822420 -1.19246521
H  -3.28098637 -4.20047383 -0.45976963
H  -3.07074410 -5.77818445 -0.82480755
O  -0.46566445 -1.78454069 -5.83521261
H  -0.43460137 -2.53819613 -5.17867746
H  -0.75818211 -2.13082794 -6.72657051
