78
N16 tacrine microhydration cluster; source_frame=7863; time_ps=7878.726000; n_waters=16; atoms=78; max_selected_waterO_min_distance_A=3.747594; selection=nearest_16_water_oxygens_to_tacrine_heavy_atoms
N   0.21065769 -1.40441608 -0.44722993
N  -0.23029556  2.51554203  0.96418446
C  -1.94666615 -0.83733177  3.10519546
C  -1.27958241  0.42383575  2.56884878
C  -0.98762455 -1.96744156  3.06616443
C  -0.51731243  0.14663792  1.21171158
C  -0.76895466 -2.37933540  1.58013075
C  -0.31927719 -1.16043091  0.75723975
C  -0.06546535  1.21154213  0.44455140
C   0.49867878  0.97915459 -0.85513932
C   0.54967937 -0.41606808 -1.33567053
C   1.01837788  1.96295834 -1.79705388
C   0.98827610 -0.78639126 -2.63340289
C   1.41638241  1.52695847 -3.11735541
C   1.43312607  0.18478584 -3.51217467
H  -2.30242481 -0.71339607  4.12802261
H  -2.86796417 -1.07625580  2.57394737
H  -2.04428806  1.19869518  2.51482528
H  -0.57545986  0.93924999  3.22204154
H  -0.01620235 -1.72462559  3.49683851
H  -1.34217777 -2.82085991  3.64415210
H   0.02164898 -3.12904835  1.61137527
H  -1.61429157 -2.87752247  1.10545605
H   1.09400806  3.00527954 -1.52457005
H   1.10116444 -1.82960320 -2.88906771
H  -0.25305214  3.20058823  0.22236627
H  -0.75524273  2.66334248  1.81429380
H   1.88147316  2.19136620 -3.83055503
H   1.88335953 -0.02463531 -4.47125346
H   0.50227318 -2.34526634 -0.67052561
O   1.07314167 -4.05616856 -0.96465117
H   0.34332523 -4.61944294 -0.57723719
H   1.20494137 -4.29662228 -1.92632205
O  -1.24248066 -2.49184227 -3.69630534
H  -2.00262394 -2.49456501 -3.04655558
H  -1.22791042 -1.62153530 -4.18859965
O   4.02051792 -1.35120392 -1.97611338
H   3.94156227 -0.35723877 -1.89996154
H   3.91031895 -1.62202835 -2.93241364
O   2.67015419 -2.77294540  1.06803315
H   3.64779053 -2.56381798  1.04584115
H   2.42645130 -3.31298542  0.26244920
O  -3.42961349  3.16568375  0.61012071
H  -3.94611063  2.35167503  0.34437459
H  -3.89019718  3.61808777  1.37379163
O  -1.62466660 -2.34639835  6.46183484
H  -1.00467815 -3.01002598  6.88041883
H  -2.39231815 -2.82800007  6.03902274
O   2.12030373  0.77543926 -6.89181525
H   1.98615036  1.76590347 -6.86041838
H   1.23298988  0.32127285 -6.97184951
O  -0.21080914  4.45757294 -4.24145705
H   0.20324192  3.83382797 -4.90440852
H  -0.85080090  3.95206070 -3.66277987
O  -4.58207169  1.43882084  4.00644737
H  -4.02034035  1.54078484  4.82745975
H  -5.35969105  0.84277344  4.20653599
O  -2.33713093  3.24138737 -2.07910115
H  -2.57339134  3.08498669 -1.12008101
H  -2.97904339  2.74720478 -2.66538912
O   3.72979984  4.36362934 -2.38884646
H   3.09472618  5.13238621 -2.31339699
H   3.79184971  4.07508659 -3.34430129
O  -1.42897644  4.89229488  3.49704688
H  -0.45608273  5.06449890  3.34269648
H  -1.95269623  5.20544720  2.70480102
O  -0.79685154 -5.67423725 -0.07880646
H  -0.88067570 -6.39437675 -0.76755339
H  -1.70840683 -5.37880611  0.20717901
O   2.05147228 -3.04212761 -5.39941317
H   1.13485203 -3.10101128 -5.79481036
H   2.14931831 -3.73055649 -4.68073851
O  -3.17603817 -2.41344261 -1.64013964
H  -3.64260759 -3.19822884 -2.04809052
H  -3.59544220 -2.19776630 -0.75833232
O  -1.68809929 -0.59627914 -5.43372447
H  -2.68407192 -0.53188324 -5.49611098
H  -1.27194252 -0.00546360 -6.12491805
