78
N16 tacrine microhydration cluster; source_frame=5343; time_ps=5353.686000; n_waters=16; atoms=78; max_selected_waterO_min_distance_A=3.767322; selection=nearest_16_water_oxygens_to_tacrine_heavy_atoms
N  -0.29028289  1.08779081 -0.90896215
N   0.56618055 -2.05063788  1.66001449
C   2.35759195 -1.78319327 -2.30312362
C   2.12432035 -1.72911708 -0.77178946
C   2.52943166 -0.37609116 -2.82958903
C   0.99159845 -0.77191703 -0.35486021
C   1.30641778  0.49158700 -2.64767661
C   0.64507802  0.22130283 -1.24415269
C   0.23891195 -0.94314591  0.83998475
C  -0.73855559 -0.03608481  1.11523614
C  -0.98028628  1.08925708  0.23488209
C  -1.44844786 -0.04950015  2.34092102
C  -2.00796000  2.06041463  0.52471945
C  -2.47377364  0.87907251  2.65572104
C  -2.82022444  1.91026243  1.68867478
H   3.24193891 -2.41009108 -2.41727605
H   1.56009229 -2.36253421 -2.76837316
H   2.07909044 -2.73196665 -0.34711590
H   3.06884416 -1.28479735 -0.45785322
H   3.33097013  0.07003244 -2.24085345
H   2.97258600 -0.44832532 -3.82281461
H   1.55713971  1.55235942 -2.64766707
H   0.58101972  0.23898729 -3.42104020
H  -1.25355498 -0.83110921  3.06029854
H  -2.25397078  2.97244628  0.00119553
H   1.43123658 -2.54299800  1.48867188
H   0.00361379 -2.35882346  2.44016871
H  -3.04002396  0.65553459  3.54779253
H  -3.57627074  2.65579780  1.88608370
H  -0.43194930  1.83116992 -1.57785549
O  -0.74289004 -2.83543746  3.98821280
H   0.03022226 -3.39877574  4.27967010
H  -1.36551825 -2.69954077  4.75883946
O  -1.05342929  3.14327224 -2.87809577
H  -0.97329013  4.00582059 -2.37850776
H  -0.79228846  3.28557452 -3.83284965
O   0.06725057 -5.05658786  0.68090830
H   0.77878793 -5.45629088  0.10302207
H  -0.71517436 -4.79707495  0.11481247
O   3.25291856  1.08721670  1.22256873
H   2.62364133  1.11492809  1.99925528
H   3.95972761  0.40005859  1.39060084
O   2.93553861  2.80932124 -0.82638540
H   2.81490453  2.28099807  0.01404438
H   2.18207486  3.45978721 -0.92222967
O   1.94478162 -5.13392607 -2.47730508
H   0.96505578 -4.97626845 -2.35368886
H   2.32510980 -5.53720919 -1.64501133
O   2.71157773 -4.02346388 -4.91847339
H   2.42808374 -4.41354911 -4.04242291
H   2.73587163 -4.74369113 -5.61178555
O   5.77013810 -0.55063407 -1.52966108
H   5.62894471  0.39615758 -1.81888356
H   5.41706975 -0.67194096 -0.60196104
O   0.70102628  4.45725234 -0.34764376
H   0.32868417  5.11487945 -1.00253930
H   0.91777833  4.92593654  0.50871692
O  -1.74565283  5.25997194  2.52150521
H  -1.47409598  5.90712519  1.80915002
H  -1.05235068  4.54397424  2.60323832
O   5.18410619 -1.01876895  1.02833233
H   5.19233545 -2.00162474  1.21252439
H   6.09809717 -0.64321248  1.18188289
O   1.55066427 -0.81051747  4.97696671
H   2.24752076 -1.45649878  5.28857551
H   0.67189058 -1.04091326  5.39490757
O   3.83019861  2.63411983 -4.52437272
H   4.25954469  2.80454620 -3.63745847
H   4.36530431  1.95664676 -5.02904286
O  -3.66403023  1.51279386 -2.73879495
H  -2.76465480  1.94797023 -2.78057256
H  -3.55292527  0.51919158 -2.71853890
O   1.27077421 -4.57412306  4.35678968
H   2.06976064 -4.25280062  3.84848568
H   1.03514894 -5.49877898  4.05763731
O   0.21943220  3.48740633  3.25896666
H   1.06355890  2.95126494  3.26014791
H  -0.30374400  3.28720625  4.08734283
