78
N16 tacrine microhydration cluster; source_frame=2923; time_ps=2928.846000; n_waters=16; atoms=78; max_selected_waterO_min_distance_A=3.600895; selection=nearest_16_water_oxygens_to_tacrine_heavy_atoms
N  -0.16006304 -0.02525822  1.38750426
N   0.16281865 -0.09008996 -2.69146856
C  -1.02370383  3.55449279 -0.47421010
C  -1.02334143  2.33583530 -1.40382894
C  -1.54723956  3.36861976  0.95919673
C  -0.35830428  1.16190132 -0.65309270
C  -0.71210887  2.29619010  1.63457362
C  -0.44259955  1.11189731  0.75681082
C   0.20104669  0.04123672 -1.28569158
C   0.58774923 -1.13043944 -0.56220754
C   0.34266256 -1.12046448  0.80802790
C   1.12187932 -2.37152020 -1.06335481
C   0.55298875 -2.18549077  1.66109149
C   1.33770345 -3.50351493 -0.19893869
C   0.96051191 -3.44339530  1.12558810
H  -0.04864909  4.04044517 -0.43930848
H  -1.51902224  4.36547263 -1.00813135
H  -2.04330470  2.02478298 -1.62970765
H  -0.49262740  2.57622894 -2.32505353
H  -1.58595301  4.30212673  1.52059333
H  -2.59905745  3.13806232  1.12837283
H   0.28150533  2.70024379  1.82840649
H  -0.97020079  2.12274440  2.67927710
H   1.37207006 -2.49214188 -2.10702928
H   0.33232473 -2.10472695  2.71521870
H  -0.10708834  0.72300895 -3.22637113
H   0.14804815 -1.00032679 -3.12890561
H   1.71355794 -4.48021332 -0.46575864
H   1.13159726 -4.28174130  1.78460709
H  -0.38250472 -0.12301938  2.36784236
O   0.26722596  0.22636112  4.15110747
H   0.36514066  1.15068801  4.51993338
H   1.17171167 -0.18476168  4.03760354
O  -0.60910060 -2.70646302 -3.68407377
H  -0.77905966 -3.39072816 -2.97492345
H   0.11150335 -3.03249804 -4.29598077
O  -1.52427699  1.48226817 -4.76101907
H  -2.26548125  0.84983047 -4.53598626
H  -1.79382064  2.41305908 -4.51409086
O  -3.25421549 -0.10166184  1.82837407
H  -3.52852847 -0.54061000  2.68398921
H  -3.91451480  0.61149772  1.59298484
O   0.19971345 -6.57549743  1.60429255
H  -0.47140814 -6.24422006  2.26750485
H  -0.11974074 -6.37477581  0.67819373
O   2.76643251 -0.57774607  3.45408789
H   3.49405073  0.09394821  3.59336774
H   3.17005132 -1.48104731  3.30869548
O  -0.48526980 -6.10183338 -1.00496229
H  -1.05013682 -5.42670314 -1.47943528
H   0.41577123 -6.14496366 -1.43654569
O   3.65739702 -1.66830603 -3.02068456
H   3.71083234 -1.38072745 -2.06441816
H   4.17999814 -1.03317181 -3.58944829
O  -2.78654887 -2.10456101  0.06278197
H  -3.74518229 -2.02455870 -0.21038755
H  -2.56983020 -1.39275138  0.73088328
O  -4.23791148  3.79715904  3.02466551
H  -5.01716735  3.66041931  3.63627211
H  -3.39409472  3.54520496  3.49847285
O   3.14252542  0.92907985  1.02766005
H   3.15948747 -0.01199023  0.68987528
H   2.72123884  0.95023044  1.93434111
O   1.81430982 -5.72669999 -2.92396959
H   1.65348790 -6.11553673 -3.83113130
H   2.66836809 -5.20656912 -2.93089612
O   4.34210561 -0.96416632 -0.54163202
H   4.98966764 -0.21044938 -0.65376695
H   4.81364225 -1.75281302 -0.14705785
O   0.38745664  6.60967620 -1.63197549
H   0.62150167  6.31489738 -0.70551618
H  -0.52854945  7.01083835 -1.63270124
O  -2.23976447  4.09712585 -4.24971422
H  -3.05725505  4.50820144 -3.84632047
H  -1.49481608  4.76423915 -4.24614271
O  -2.01583888 -4.08138625 -1.50779661
H  -2.92599513 -4.38822595 -1.78612455
H  -2.08684851 -3.18934743 -1.06145128
