78
N16 tacrine microhydration cluster; source_frame=4032; time_ps=4040.064000; n_waters=16; atoms=78; max_selected_waterO_min_distance_A=3.612840; selection=nearest_16_water_oxygens_to_tacrine_heavy_atoms
N  -0.99264812 -0.89594556  0.64026108
N   1.68542290  1.62870048 -1.34051189
C   2.16899490 -2.51315405 -1.64584599
C   1.42736626 -1.20886184 -2.08971081
C   1.27800179 -3.47199060 -0.72652016
C   0.63072395 -0.53508045 -1.02777538
C  -0.18940067 -2.95189859 -0.56584129
C  -0.23528099 -1.41615869 -0.31547699
C   0.73811722  0.86060236 -0.74311028
C  -0.11466408  1.34725378  0.30206814
C  -0.97433853  0.40640496  0.99566307
C  -0.23228550  2.68518804  0.68621483
C  -1.98902130  0.86150215  1.88727512
C  -1.17009830  3.06849764  1.67536392
C  -2.03088951  2.13494037  2.26794662
H   2.66350460 -2.96851446 -2.50387106
H   2.94723034 -2.05092098 -1.03856430
H   2.18601894 -0.51332571 -2.44856319
H   0.69888401 -1.41591837 -2.87363825
H   1.34520531 -4.49540235 -1.09558830
H   1.68566704 -3.46081163  0.28431263
H  -0.70607090 -3.19729711 -1.49370441
H  -0.83206081 -3.55081751  0.07943668
H   0.40425587  3.46512364  0.29517021
H  -2.64900589  0.14870118  2.35922279
H   2.24435139  1.35463475 -2.13586531
H   1.99107742  2.46505760 -0.86387596
H  -1.03433609  4.08687208  2.00835171
H  -2.71161747  2.44916199  3.04529800
H  -1.69766903 -1.42480137  1.13357391
O   3.66068840  1.14128540 -3.30668268
H   3.85377026  0.79811095 -4.22589455
H   4.47953701  1.57918166 -2.93555698
O  -3.51424313 -2.20704033  1.60652294
H  -4.02527237 -1.43503000  1.98447742
H  -3.68728542 -2.27220012  0.62376537
O  -4.51575184  3.24640535  0.86079731
H  -3.82528591  3.04937576  0.16478291
H  -5.34010506  2.71235965  0.67308369
O  -1.20696259 -2.86184599  2.99224033
H  -2.16906166 -2.69195749  2.77892342
H  -1.14319420 -3.45440389  3.79523888
O   2.84040260  4.26164447 -0.04353676
H   3.24561977  4.50302373 -0.92531643
H   3.29522419  3.44910954  0.32105103
O  -1.83695316 -5.72088148 -0.68743668
H  -0.96877193 -6.21505071 -0.64208279
H  -2.19235420 -5.58588792  0.23747768
O   4.36546135  2.15289877  0.46515884
H   4.30231094  1.46767019  1.19074383
H   5.26391315  2.09557365  0.02984562
O   1.57313442 -1.97213508  2.45568981
H   0.68024445 -2.42230751  2.46535816
H   1.57187557 -1.21519186  3.10916843
O  -2.36788845  0.07845829 -2.42364368
H  -2.61423969  0.87066029 -1.86531887
H  -1.80331993  0.37590550 -3.19357023
O   3.79126358 -1.26355793  1.06452408
H   2.93742752 -1.76825430  1.19198551
H   3.80074692 -0.46663524  1.66852989
O  -3.77911377 -1.94804479 -1.09229050
H  -3.18712711 -1.28428079 -1.54942093
H  -4.73561668 -1.68748666 -1.22348843
O  -5.27143097  0.00352095  2.56849804
H  -5.61567163  0.64336632  1.88140526
H  -4.89153194  0.51479624  3.33939018
O   5.40544128 -1.43593074 -2.46614466
H   6.07904148 -1.07858946 -3.11311445
H   4.51183224 -1.02965929 -2.65694914
O   2.90914440 -6.53517343 -0.15700970
H   3.02661800 -6.00344087  0.68171635
H   3.75330257 -6.50431062 -0.69221363
O  -4.25998878  1.12868927  4.83922329
H  -4.82901955  1.93093108  5.01981201
H  -4.43275261  0.43358372  5.53706303
O   3.57363796 -4.82258512  1.71449604
H   3.55473328 -5.28812601  2.59931984
H   4.36899185 -4.21786501  1.67295685
