78
N16 tacrine microhydration cluster; source_frame=6956; time_ps=6969.912000; n_waters=16; atoms=78; max_selected_waterO_min_distance_A=3.757167; selection=nearest_16_water_oxygens_to_tacrine_heavy_atoms
N  -0.53170687 -0.21233261 -1.38940237
N   0.98192590  0.34431230  2.43816450
C  -3.10600955  1.71724044  1.47965529
C  -1.56888110  1.65445434  1.73483326
C  -3.36349112  1.90615427 -0.00936291
C  -0.75609214  0.73961937  0.78658202
C  -2.70325381  0.86715805 -0.88785956
C  -1.26194579  0.52273237 -0.50862978
C   0.49376100  0.17524730  1.18629911
C   1.21713250 -0.58706129  0.20593193
C   0.72550481 -0.72582329 -1.11576984
C   2.47847074 -1.21330155  0.50155201
C   1.49220174 -1.40522469 -2.15078590
C   3.18411296 -1.86117757 -0.48339174
C   2.71827072 -1.92199744 -1.78781602
H  -3.56061083  0.79281294  1.83584406
H  -3.51118094  2.53283893  2.07859972
H  -1.14881045  2.62834751  1.48349049
H  -1.32282454  1.36633884  2.75686362
H  -4.43598849  1.81518280 -0.18132994
H  -3.07239348  2.92297661 -0.27286718
H  -3.39187152  0.02323400 -0.92905424
H  -2.68287284  1.18976032 -1.92882679
H   2.91410917 -1.12148226  1.48551753
H   1.10015672 -1.50065125 -3.15258167
H   1.67372316 -0.34515036  2.69537594
H   1.12214654  1.30937683  2.70101073
H   4.13057226 -2.31139148 -0.22277305
H   3.39298004 -2.49399770 -2.40748022
H  -0.80348498 -0.28157938 -2.35968158
O  -1.53640181 -0.22043455 -3.98773954
H  -2.35229499  0.35774910 -3.98301933
H  -1.03392893 -0.08089817 -4.84099863
O   2.22811168 -1.97866405  4.14065709
H   1.68859666 -2.79944814  3.95294287
H   1.75958627 -1.42137898  4.82616236
O   2.30648321  3.16228878  1.96378734
H   1.80792039  3.52845394  1.17806616
H   3.28244966  3.12150680  1.74971607
O   2.24016279 -4.79380489 -3.19185588
H   2.29071420 -4.03694022 -3.84346960
H   1.73324769 -4.50201941 -2.38074634
O  -1.39674098  2.72362148  4.80424192
H  -1.76415736  1.83747255  5.08663466
H  -2.12114913  3.26350891  4.37557580
O   0.65115064 -4.35486639 -0.70857880
H  -0.23170382 -3.91232277 -0.55134008
H   0.51065915 -5.33232797 -0.86615798
O   3.60962766  1.54914724 -1.07211134
H   3.44973176  0.66787540 -0.62737176
H   4.38051265  1.46862375 -1.70397518
O  -1.76243025 -1.56376589  3.10482665
H  -2.00695998 -2.52915347  3.01409450
H  -1.41585452 -1.22411097  2.23045834
O  -4.39882762  3.59949505 -2.88924501
H  -3.81842333  3.99718486 -2.17863033
H  -5.00563914  4.30413734 -3.25702045
O  -1.59534556 -3.17675889  0.19969895
H  -1.92256743 -3.50960911  1.08408418
H  -2.34223849 -2.71667493 -0.28037832
O   5.39451164 -0.20943917  2.22300092
H   5.12139695 -1.09546221  2.59766225
H   6.25317591 -0.31041325  1.72050736
O  -1.45662982  4.30636799 -1.87499282
H  -0.63153369  3.82182419 -1.58441875
H  -1.53608901  4.26176273 -2.87083290
O  -4.87078864  4.78708660  2.10435700
H  -5.51049906  5.34551536  1.57621991
H  -3.95279032  5.17786037  2.03672119
O   5.34212488 -1.39171589 -4.21125410
H   6.27674669 -1.05144728 -4.31469057
H   5.32807821 -2.37962592 -4.36564634
O   2.09664434 -4.80388094  1.52691504
H   1.65108388 -4.55267931  2.38620129
H   1.61659902 -4.37141574  0.76367822
O  -3.57949454  4.23195469  4.23071542
H  -3.75971705  5.11628544  4.66138961
H  -4.18039328  4.11787521  3.43957283
