78
N16 tacrine microhydration cluster; source_frame=504; time_ps=505.008000; n_waters=16; atoms=78; max_selected_waterO_min_distance_A=3.655645; selection=nearest_16_water_oxygens_to_tacrine_heavy_atoms
N  -0.86976802 -0.86446994  0.85564156
N   1.46955741  1.43610531 -1.70312099
C  -2.53256928  2.67561967 -0.60239677
C  -1.35748994  2.11022336 -1.42665892
C  -3.54118716  1.50473744 -0.47773914
C  -0.69667613  0.86211640 -0.73829870
C  -2.93402659  0.31296117  0.40550823
C  -1.42592799  0.14910943  0.16187878
C   0.70035423  0.62111909 -0.85921364
C   1.32643188 -0.39466041 -0.07243710
C   0.49685443 -1.19531959  0.75737495
C   2.72424377 -0.67103523 -0.02110367
C   1.02828277 -2.26721042  1.54248734
C   3.20499194 -1.77158969  0.65957184
C   2.40692867 -2.50770658  1.51850624
H  -2.29766833  2.95162255  0.42558403
H  -2.92210042  3.54031521 -1.13967400
H  -1.55313861  1.93789155 -2.48501806
H  -0.64825999  2.93711907 -1.39010553
H  -4.45357811  1.96214158 -0.09508400
H  -3.71325528  1.16492421 -1.49902229
H  -3.01961934  0.47372872  1.48018379
H  -3.43960082 -0.58813232  0.05834217
H   3.33495582  0.09742314 -0.47155170
H   0.31656516 -2.80450958  2.15172310
H   2.45906604  1.26339394 -1.59755402
H   0.97650493  1.85977704 -2.47610359
H   4.26945747 -1.95201915  0.68710823
H   2.90653957 -3.15422099  2.22476978
H  -1.41965853 -1.43043083  1.48604507
O  -2.13009249 -2.83937877  2.06848831
H  -3.11546265 -2.84102815  1.89806957
H  -1.94362580 -3.27241462  2.95036716
O   0.22881473  2.35535962 -4.32936697
H   0.32555259  1.91519791 -5.22205882
H  -0.43673693  3.09884602 -4.39470415
O   3.62333835  3.21425015 -0.41912680
H   3.87116874  2.69202000 -1.23512726
H   3.90963329  4.16564995 -0.53258734
O  -4.49915420 -1.07464927  2.81233997
H  -4.46035659 -1.56050437  3.68551750
H  -5.14707886 -1.53329986  2.20420094
O  -6.08893477 -0.02762550  0.84159203
H  -6.29781114  0.56224209  1.62160892
H  -6.48339092  0.36577756  0.01114721
O   0.49019302 -4.84266132  3.38832207
H   0.12141574 -5.28105872  2.56868191
H   0.27591766 -5.40080541  4.18992157
O   2.40400279  0.20229966  3.37230797
H   2.47607578  1.07135731  2.88287468
H   1.69020809  0.27051121  4.06933422
O   4.68834651  1.85976941 -2.51070242
H   4.99864448  1.04554326 -3.00136738
H   5.48031391  2.40311581 -2.23220043
O   0.86308063 -0.31207317 -4.49780588
H   1.84633983 -0.26198619 -4.32261186
H   0.39247955  0.38655621 -3.95887022
O  -1.13237940 -3.88854211 -0.62852983
H  -1.43394124 -3.54929679  0.26252193
H  -0.14991223 -4.07277387 -0.59995584
O   2.89878047  3.22851998 -4.22454243
H   2.26344169  2.45628792 -4.22567587
H   3.73745883  2.96943337 -3.74548845
O  -2.12116610  5.85668809  0.62705250
H  -1.23409735  5.49948079  0.33462830
H  -2.13499104  5.93973023  1.62350292
O  -4.08611952  4.31241852 -3.26858883
H  -3.13128602  4.56819684 -3.41981964
H  -4.46014725  4.85166985 -2.51406174
O   4.24622978 -5.00648206 -0.19688253
H   4.23050369 -5.11797517  0.79675789
H   3.30932010 -4.93572181 -0.53921728
O   5.01226104 -0.56233543  3.56238766
H   4.04364646 -0.36079830  3.41689129
H   5.33006347 -0.09372943  4.38665123
O   1.84826721 -4.73497194 -1.32594900
H   1.84978736 -4.42671913 -2.27725248
H   1.48019660 -5.66348213 -1.27702932
