78
N16 tacrine microhydration cluster; source_frame=9376; time_ps=9394.752000; n_waters=16; atoms=78; max_selected_waterO_min_distance_A=3.646817; selection=nearest_16_water_oxygens_to_tacrine_heavy_atoms
N  -0.33744621  0.79014574 -1.20159927
N   0.63280964 -1.39602818  2.22476253
C  -1.35311794  2.51669679  2.46747407
C  -0.46418619  1.25961022  2.62142548
C  -0.86555910  3.51320921  1.38478836
C  -0.20240307  0.62732911  1.21393141
C  -0.79382896  2.89696632 -0.02417472
C  -0.49098873  1.37363188  0.01900705
C   0.29286814 -0.70604457  1.03578052
C   0.44123888 -1.30138912 -0.26949105
C   0.15113163 -0.49056472 -1.39539495
C   0.82002163 -2.63144817 -0.52790758
C   0.29338932 -1.02539005 -2.78399101
C   1.07077646 -3.13250031 -1.84252301
C   0.80529451 -2.29422416 -2.92208782
H  -2.37425995  2.29906617  2.15441450
H  -1.60236073  2.86327849  3.47039971
H   0.48887587  1.60021572  3.02610001
H  -0.89070702  0.65979548  3.42541680
H  -1.45114231  4.43095480  1.43897208
H   0.15094376  3.83086429  1.61698994
H  -1.75285053  3.01302825 -0.52905855
H   0.01668692  3.35959206 -0.58732763
H   1.04455853 -3.35268606  0.24397263
H   0.09724474 -0.40673723 -3.64723841
H   1.20734215 -0.71112098  2.69477805
H   0.98864603 -2.32092799  2.02972159
H   1.55866146 -4.06217207 -2.09566060
H   1.04862928 -2.70033588 -3.89278928
H  -0.46193886  1.34166883 -2.03851262
O  -0.81925917  2.38087098 -3.34930220
H  -1.20880270  2.24930112 -4.26086417
H  -0.47032642  3.31444256 -3.26750985
O   3.53326583 -1.98789294  0.41661996
H   3.45976186 -2.95994838  0.63956768
H   4.07112098 -1.87735637 -0.41913920
O  -0.44862938  6.52155439  2.29479822
H   0.29826450  5.96503584  2.65871748
H  -1.29377985  6.30610840  2.78398546
O  -3.10590076  0.07712517 -2.67625562
H  -2.89881325 -0.56738110 -3.41227642
H  -3.28666973  0.98044883 -3.06526557
O  -2.30941677 -2.82894357 -1.25263396
H  -1.70561790 -2.14074381 -1.65488723
H  -2.88391972 -3.22719105 -1.96771828
O  -1.46973372 -2.49247749  4.41222009
H  -1.37097883 -3.29149349  3.81907496
H  -1.28274584 -1.66231306  3.88699373
O   2.81008339  0.02181552  4.17217549
H   2.60010099 -0.83157106  4.64929065
H   3.62036300 -0.10666068  3.60038814
O   1.43570089  4.96140806  3.44790444
H   2.39469147  5.21659986  3.32455835
H   1.18795013  5.05251019  4.41243562
O   3.42913651  0.49154000 -2.71901265
H   3.78607345  0.27044825 -1.81142560
H   3.62492466 -0.26182910 -3.34678832
O   1.20660782 -4.50975378  3.69666537
H   1.25781393 -3.73373707  4.32529601
H   0.31799698 -4.50908669  3.23800430
O  -0.78191137 -1.49404486 -6.11938182
H  -0.99015188 -2.04037293 -6.93065348
H  -1.27347946 -0.62455745 -6.16788331
O   3.21231174 -4.75494202  1.11356523
H   3.48153925 -4.92321356  2.06182739
H   3.21428919 -5.61794098  0.60836342
O   1.18867874 -6.68093117 -2.60125581
H   1.51566315 -6.29823216 -3.46532908
H   0.99622965 -7.65505465 -2.71977630
O  -2.68450642 -2.56893976 -4.17781010
H  -1.82324219 -2.70084556 -4.66854897
H  -3.06120300 -3.45882996 -3.92052499
O   3.55825639  0.78785331  0.43185814
H   3.27343106 -0.17070859  0.42604884
H   3.13817501  1.25568510  1.20946040
O   2.18124676 -1.66989310 -6.24116031
H   2.43826151 -1.91607626 -7.17568532
H   1.37994051 -2.20062573 -5.96505967
