78
N16 tacrine microhydration cluster; source_frame=6049; time_ps=6061.098000; n_waters=16; atoms=78; max_selected_waterO_min_distance_A=3.662595; selection=nearest_16_water_oxygens_to_tacrine_heavy_atoms
N   0.50441982  0.40025120 -1.30290775
N  -0.69417189 -0.58961172  2.48498745
C  -2.33840416  2.97967319  0.50395126
C  -1.96249150  1.65529518  1.32456703
C  -2.39953564  2.86706238 -0.99579792
C  -0.87145422  0.77834539  0.55094738
C  -1.21425961  2.16096573 -1.67341213
C  -0.46708201  1.12747459 -0.78377419
C  -0.36045550 -0.34053774  1.15290661
C   0.60077383 -1.09267159  0.49210854
C   1.08236601 -0.70776196 -0.80885391
C   1.23962404 -2.25230713  1.04780216
C   2.03052808 -1.42253275 -1.47937374
C   2.22725345 -2.98573346  0.36894817
C   2.62288930 -2.57791133 -0.88209896
H  -3.21027420  3.44746380  0.96124096
H  -1.47864006  3.63472919  0.64468689
H  -1.62193058  2.05960064  2.27780075
H  -2.84002446  1.03418236  1.50416393
H  -3.22675846  2.18676453 -1.19827633
H  -2.51683567  3.83240585 -1.48819237
H  -1.44843624  1.75361710 -2.65694027
H  -0.40922736  2.86639957 -1.87928944
H   1.07803203 -2.53091164  2.07866020
H   2.34007789 -1.01186819 -2.42907600
H  -1.57537506 -0.17978926  2.75998898
H  -0.43398331 -1.42802114  2.98445911
H   2.65234162 -3.83263512  0.88707657
H   3.34925629 -3.18287749 -1.40440826
H   0.82366039  0.61690884 -2.23631268
O   1.17681314  0.78479700 -3.99591475
H   0.36289169  1.29441338 -4.27488260
H   1.40514042  0.11081915 -4.69849615
O  -2.17831181 -3.24631662  2.28531189
H  -1.91309117 -4.20586748  2.19086761
H  -2.35467194 -2.85864658  1.38054104
O   2.51721431 -6.13987456  0.33363934
H   2.16415359 -5.89674754 -0.56981926
H   1.76438524 -6.45337958  0.91239948
O   4.90240432 -0.74751253  0.33761520
H   5.29258622 -0.89689655  1.24615402
H   5.03878130 -1.56482668 -0.22220592
O   5.21273567 -3.53833981  1.36407871
H   5.44856908 -3.34922118  0.41086502
H   5.97251244 -3.26794977  1.95537300
O   2.76210143  1.10498981  1.36015339
H   3.44706918  1.27287083  2.06912060
H   3.10670950  0.41877346  0.71956558
O  -3.64740609  5.92523746  1.02563019
H  -2.71975468  6.14907150  1.32456417
H  -4.10369728  5.38394909  1.73189087
O   5.90179314 -2.84024234 -1.25811653
H   6.87833615 -3.04625697 -1.19549351
H   5.52253105 -3.26929421 -2.07791786
O   1.25535919  0.92366486  4.71645947
H   1.87445451  0.21678190  5.05856819
H   0.80344106  0.59755116  3.88614674
O  -2.94859455 -1.82507153 -0.37830524
H  -2.91375683 -2.77985067 -0.67357235
H  -2.69679974 -1.23061247 -1.14199238
O  -3.82950924 -0.51099987  3.69478722
H  -4.38262032 -1.23322601  4.11006756
H  -4.03893898 -0.45026655  2.71885128
O  -5.60275029  3.62316303 -2.16659431
H  -5.33162640  4.36848049 -2.77568655
H  -5.76874398  3.98576527 -1.24955254
O   3.28226043 -3.86789627  3.60286922
H   3.76429297 -3.34244676  4.30397339
H   3.76364042 -3.78018541  2.73075600
O  -2.14912747 -0.79693813 -3.54012995
H  -1.86915444 -0.58405228 -4.47623663
H  -1.49296234 -1.43179054 -3.13219576
O  -1.03576516 -3.04146857 -2.63995295
H  -1.47801445 -3.69782610 -2.02871590
H  -0.99133633 -3.42328830 -3.56312160
O  -0.95502756  2.49901180 -5.31114845
H  -0.28003167  2.82361584 -5.97372894
H  -1.35316275  1.64048557 -5.63429050
