78
N16 tacrine microhydration cluster; source_frame=6250; time_ps=6262.500000; n_waters=16; atoms=78; max_selected_waterO_min_distance_A=3.526509; selection=nearest_16_water_oxygens_to_tacrine_heavy_atoms
N  -0.36490091 -0.86524938 -1.06397843
N   0.82253615  1.49188830  2.09033346
C   2.35898415  1.96989276 -2.05173087
C   2.25871340  1.76892878 -0.54618907
C   2.53621403  0.70141722 -2.84155774
C   1.06249873  0.80644347 -0.19813895
C   1.25369994 -0.19204591 -2.70431495
C   0.65689246 -0.04732869 -1.24221921
C   0.33020083  0.75188948  1.01037669
C  -0.71788152 -0.10890745  1.16377664
C  -1.03640588 -0.97700475  0.09686422
C  -1.53359063 -0.25564359  2.32360768
C  -2.11747392 -1.91865228  0.18574071
C  -2.63247236 -1.15003179  2.42333770
C  -2.87701448 -1.97559617  1.35409212
H   1.44943015  2.52176310 -2.28890586
H   3.17360942  2.67278315 -2.22617459
H   3.17922322  1.36568190 -0.12410712
H   2.15721575  2.71378447 -0.01229215
H   2.67337672  0.79576899 -3.91876912
H   3.28826873  0.06353213 -2.37721372
H   0.52711932  0.18414809 -3.42449450
H   1.41567866 -1.19726537 -3.09341216
H  -1.40624078  0.43744017  3.14203095
H  -2.42530282 -2.48257564 -0.68237853
H   0.28709761  1.37948252  2.93931556
H   1.80609433  1.72106864  2.10412788
H  -3.33393224 -1.14299463  3.24449801
H  -3.65710290 -2.71990608  1.41624641
H  -0.67980798 -1.49621366 -1.78703904
O  -0.34819444  2.15508868  4.68362522
H  -0.78576978  2.95280101  5.09857416
H  -0.40027364  1.38068892  5.31417561
O  -0.68448480 -3.14601205 -2.98240399
H  -1.17183050 -3.99884866 -3.16992307
H  -0.60918744 -2.61292051 -3.82510400
O  -3.15051969  2.05083682  1.12141228
H  -3.87725766  2.29501082  1.76346517
H  -3.55555375  1.75577761  0.25602961
O  -0.98663266 -2.80481265  4.57638377
H  -1.59369214 -3.26634954  3.92949682
H  -1.07056268 -3.23322175  5.47606230
O  -0.95126088 -0.36320375  5.48250985
H  -1.09569581 -1.13907121  4.86837023
H  -0.04551633 -0.43309949  5.90052938
O   3.86058442  0.92891051  2.98981929
H   4.78138940  0.69040229  3.29841590
H   3.76465527  1.92399050  2.96504354
O  -2.40514692 -4.64232467  3.15292323
H  -3.13748296 -4.75694631  3.82415009
H  -2.53926214 -5.28662465  2.40000176
O  -3.92368062  0.48626448 -1.23230243
H  -3.68760427 -0.40222905 -0.83879638
H  -4.33604844  0.35271861 -2.13347840
O   2.22467534  4.91012026 -3.63165164
H   2.16673676  5.89001204 -3.82258391
H   1.43600623  4.62997367 -3.08436894
O  -1.82839521  1.65142943 -2.74660754
H  -2.43638166  1.34542109 -2.01400065
H  -2.04149850  1.15268733 -3.58675218
O   3.20917050 -1.26255964  1.39773846
H   3.41918914 -0.41666864  1.88800383
H   2.60735480 -1.83182596  1.95787644
O  -0.17051442 -1.84258722 -5.37354541
H  -0.46526464 -2.57452606 -5.98786426
H   0.82834975 -1.82734464 -5.32838702
O   0.21120326  4.63455512  0.73785996
H   0.52022711  3.75773741  1.10622644
H  -0.69590791  4.84751441  1.10089970
O   3.60901372  3.63065936  2.15796340
H   3.12319485  4.22389819  2.79987216
H   3.81272904  4.14020087  1.32198048
O   1.76978699  3.86588313  4.50930235
H   2.29477183  3.55069091  5.29989979
H   1.04177825  3.21002795  4.30965549
O  -4.06252988 -2.70183013  5.24878013
H  -4.31740888 -3.64697049  5.04446042
H  -3.44213899 -2.68598626  6.03291321
