78
N16 tacrine microhydration cluster; source_frame=5847; time_ps=5858.694000; n_waters=16; atoms=78; max_selected_waterO_min_distance_A=3.745891; selection=nearest_16_water_oxygens_to_tacrine_heavy_atoms
N  -1.24440505  0.14352735  0.80210748
N   2.29077886 -0.28747908 -1.42702088
C  -0.29663207  3.19596942 -2.07453618
C   0.45435832  1.84292920 -2.16215739
C  -1.82775237  2.91404851 -1.80114589
C   0.21512960  0.89460214 -0.96595643
C  -1.96465136  2.24037917 -0.38681409
C  -0.97967889  1.00822099 -0.20219157
C   1.11562179 -0.10979811 -0.63775728
C   0.81312965 -1.05634753  0.38687291
C  -0.36318185 -0.84385554  1.20324739
C   1.60957073 -2.16852347  0.82412376
C  -0.86517455 -1.81416957  2.15188529
C   1.10961746 -3.10381095  1.79220458
C  -0.06673028 -2.85569255  2.49713829
H   0.10075019  3.95628055 -1.40214143
H  -0.23410107  3.64304622 -3.06666121
H   0.28936599  1.26813587 -3.07346997
H   1.49231313  2.15806039 -2.26912436
H  -2.29623009  3.89766248 -1.76750455
H  -2.32742263  2.33374818 -2.57682738
H  -1.76782300  3.01387628  0.35552075
H  -3.02897622  2.07608922 -0.21852491
H   2.57738183 -2.27898089  0.35771098
H  -1.73321559 -1.61502806  2.76282468
H   2.24039720  0.26473935 -2.27118716
H   2.46690820 -1.27628485 -1.53351531
H   1.70694087 -3.92940203  2.14997926
H  -0.38091971 -3.55454604  3.25824847
H  -2.16408326  0.10288270  1.21760758
O  -3.83793403 -0.29858843  1.68872222
H  -4.26502253 -0.96326415  2.30174919
H  -4.22734274  0.60719522  1.85580575
O   4.96673082 -1.87692038 -1.36521885
H   5.55526994 -2.56703440 -1.78636620
H   5.52384446 -1.10374324 -1.06219862
O   0.97927640  6.20455297 -2.61996243
H   1.39465354  5.82114561 -1.79506228
H   0.07699512  6.57412251 -2.39791176
O   2.24603532  2.46462186 -4.92325900
H   2.17554162  1.46854099 -4.86983750
H   2.95560716  2.78274902 -4.29452727
O   1.78990959 -0.22677962 -4.77232573
H   2.38112138 -1.02448718 -4.89120362
H   0.90053771 -0.40536944 -5.19318554
O  -0.40263154 -0.21508757  5.09990647
H  -1.39795615 -0.12284819  5.07126548
H  -0.15926863 -1.04859225  5.59593537
O  -5.19899370  3.35122474 -1.09372685
H  -5.76910915  2.98899492 -1.83112643
H  -5.77929814  3.61909135 -0.32464025
O  -1.55115439 -5.89898841  3.43544676
H  -2.04938127 -5.67419593  2.59804722
H  -1.87306477 -6.77715842  3.78926923
O  -4.00448777 -0.86965529 -1.14938686
H  -3.54553415 -0.79947440 -0.26370261
H  -3.57857515 -1.59598605 -1.68887112
O   5.11313508  0.14963849 -3.58140156
H   4.58192514  0.91576036 -3.21963856
H   4.65338777 -0.70979659 -3.35778592
O   5.32155107  0.52074464  0.30356517
H   5.30858587  0.46448358  1.30189701
H   4.38533281  0.47595628 -0.04498718
O   2.90793775  4.42732080 -0.94328806
H   2.29714559  4.68952115 -0.19617078
H   3.85652994  4.58672222 -0.66985795
O   3.20891355 -3.48885791 -2.98367140
H   3.09135316 -4.41023986 -2.61321995
H   3.74417947 -2.93795649 -2.34336064
O  -4.28157403  5.62138255 -2.33176730
H  -3.74949242  6.19617899 -1.71007726
H  -4.61162724  4.81545671 -1.84029124
O  -3.04077961 -0.83886401  5.00005534
H  -3.84549715 -0.38632361  4.61581924
H  -3.19454457 -1.82662551  5.02620819
O   3.91734193 -0.08691184  2.91524454
H   4.20414327 -1.04269568  2.85026308
H   3.91229127  0.19507821  3.87464859
