78
N16 tacrine microhydration cluster; source_frame=3427; time_ps=3433.854000; n_waters=16; atoms=78; max_selected_waterO_min_distance_A=3.721896; selection=nearest_16_water_oxygens_to_tacrine_heavy_atoms
N   0.72547088  0.33117332 -1.23101999
N  -1.35706439 -0.70552502  2.13090752
C   2.64560161 -2.31372604  1.44190644
C   1.18439136 -1.97388086  1.75153969
C   2.85049520 -2.49754248 -0.02313377
C   0.57151017 -0.91603813  0.77096127
C   2.59979138 -1.14306984 -0.81660129
C   1.25968752 -0.58077583 -0.40063311
C  -0.66425338 -0.26910553  1.02557157
C  -1.18835511  0.74102345  0.17185782
C  -0.37534394  1.07046738 -1.01253511
C  -2.43293681  1.35234203  0.34156059
C  -0.82402434  2.03052940 -1.90068390
C  -2.87755027  2.24925270 -0.58672287
C  -2.11741986  2.62487545 -1.66297485
H   3.28351364 -1.52815542  1.84693383
H   2.72941003 -3.28108034  1.93718623
H   0.53344712 -2.84811363  1.74214171
H   1.11702142 -1.63097057  2.78399990
H   3.89385781 -2.78395758 -0.15527512
H   2.08276925 -3.24357758 -0.22838570
H   3.32911429 -0.34819374 -0.66052295
H   2.53785167 -1.24365005 -1.90018226
H  -3.04633632  1.01429310  1.16366981
H  -0.37876382  2.18248978 -2.87282135
H  -1.06732717 -1.47888765  2.71233891
H  -2.21659389 -0.22897301  2.36373328
H  -3.81636920  2.75282040 -0.40941502
H  -2.62392964  3.33039799 -2.30491401
H   1.23428044  0.61888447 -2.05469228
O   2.25629435  0.69221344 -3.64837648
H   1.59664450  1.13068237 -4.25879242
H   2.57510648 -0.16150913 -4.06009914
O  -1.26366057 -2.61064301  4.45942734
H  -1.08313193 -3.56436930  4.69987498
H  -2.23281589 -2.40891371  4.60100149
O  -1.84554591 -3.54204330  1.21868156
H  -2.12653699 -2.69534979  0.76684759
H  -1.98976436 -3.45743666  2.20460389
O  -4.03463855 -0.89730320  3.59682296
H  -4.91292014 -1.09056435  4.03416972
H  -3.88036170  0.09059849  3.58106495
O  -2.80240836 -1.71261272 -0.77003910
H  -3.27405181 -1.28846607 -1.54311897
H  -2.21211400 -2.44812975 -1.10255672
O   0.58498034  4.57773914 -3.48962642
H   0.41272054  5.52821388 -3.74832250
H   1.14629064  4.13796749 -4.19071962
O   0.08555779  5.01346912 -0.68396284
H   0.14430175  4.86336079 -1.67088558
H   0.66888032  4.35308590 -0.21106912
O  -3.31966033  1.79562607  3.55376933
H  -2.48390737  1.63683929  4.07941519
H  -3.29989161  2.71746578  3.16670288
O   6.16912619 -1.86952744  0.45737170
H   5.88018916 -1.23043118  1.17016338
H   6.11884854 -2.80473289  0.80788921
O  -3.22404780  3.64973202 -4.76190426
H  -2.99161544  2.94496098 -5.43218185
H  -2.56063428  4.39580097 -4.81903888
O  -2.53776946  5.60876503  0.30335115
H  -2.95821395  5.76173820 -0.59097888
H  -1.67566409  5.11571255  0.18641685
O  -0.98863330  1.27319851  4.99343716
H  -1.24889388  0.43842068  5.47862886
H   0.00758491  1.31896248  4.91958176
O   4.87451155  0.42353668  2.34505312
H   4.81859285 -0.08424816  3.20472054
H   4.20216781  1.16375294  2.35082386
O   2.48257337 -4.59769449 -3.03807117
H   1.87801132 -5.07294855 -2.39882280
H   3.42014346 -4.62239561 -2.69115307
O   5.25970858 -3.95391855 -2.44394209
H   5.52618381 -3.13385687 -1.93749382
H   5.44004740 -3.81739912 -3.41802646
O   4.04955552 -1.12175331  4.67619584
H   3.34227226 -0.54819546  5.08945320
H   4.07956419 -2.00417051  5.14570616
