78
N16 tacrine microhydration cluster; source_frame=2722; time_ps=2727.444000; n_waters=16; atoms=78; max_selected_waterO_min_distance_A=3.688864; selection=nearest_16_water_oxygens_to_tacrine_heavy_atoms
N  -1.31258815  0.14779002 -0.69630318
N   2.34051091 -0.36385625  1.24412483
C  -1.28969901 -1.57815832  3.09758324
C   0.04619939 -1.36504358  2.45686621
C  -2.29209750 -2.24741548  2.07148594
C  -0.06224483 -0.62245220  1.13745541
C  -2.57689613 -1.17248720  0.95236582
C  -1.27495330 -0.53865188  0.42974419
C   1.15653092 -0.18422597  0.56440157
C   1.07937104  0.51914460 -0.68975764
C  -0.24223846  0.75661713 -1.24490481
C   2.16108996  1.11123568 -1.39504248
C  -0.40050929  1.53334314 -2.36486119
C   1.98695475  1.87859542 -2.54899031
C   0.68056971  2.12556488 -3.01416760
H  -1.18980640 -2.19254440  3.99237460
H  -1.68147510 -0.63639682  3.48189754
H   0.65072018 -0.84269327  3.19835467
H   0.51128823 -2.28760856  2.10949606
H  -1.79998916 -3.10459274  1.61194557
H  -3.22276729 -2.64330524  2.47796482
H  -2.95240825 -1.74260228  0.10262484
H  -3.31358665 -0.44655269  1.29646773
H   3.18243987  1.02563340 -1.05457788
H  -1.36019939  1.74225766 -2.81402832
H   2.11103207 -0.49777168  2.21855110
H   3.07353741  0.28870589  1.00551552
H   2.86176306  2.35185892 -2.96986132
H   0.60463101  2.78551180 -3.86569768
H  -2.20473903  0.11414534 -1.16856795
O  -3.56506294  0.00752503 -1.99305015
H  -4.17281860 -0.59722608 -2.50774437
H  -4.09853309  0.52612526 -1.32487088
O   5.30345399  0.09342248  0.36440939
H   5.53474409  1.06582982  0.33393521
H   5.68685013 -0.31457370  1.19299072
O   1.99076230  0.96932680 -5.64147847
H   2.81408126  1.09983331 -5.08910781
H   2.01565749  0.06540019 -6.06844097
O   3.35473687 -0.96869844  4.24010080
H   3.46168143 -0.85811036  5.22819609
H   4.24874884 -0.89643854  3.79792303
O  -0.72745841  1.57390839 -5.90392202
H   0.27189404  1.54210192 -5.92074388
H  -1.03199809  2.52357346 -5.97735053
O   2.15753085  2.83762187  1.97258419
H   1.56780488  2.04918939  2.14750570
H   1.71342379  3.66749210  2.31034893
O   0.21694762 -4.51292127  3.76302714
H   0.44459159 -4.66766446  2.80165667
H   1.05059058 -4.30086797  4.27300066
O   2.58229882 -1.89047378 -2.89819163
H   2.16562802 -1.01108735 -2.66783315
H   2.85837990 -2.35858339 -2.05875593
O   4.55047256 -2.97739690  1.61280102
H   4.53717715 -2.11653035  2.12145847
H   5.48334796 -3.17051977  1.30875057
O   0.02454621  1.82779962  3.75640864
H  -0.65972942  2.12838990  4.42079825
H   0.89607197  1.67387993  4.22197432
O  -0.55948203  3.83823935  0.29598231
H   0.21837193  4.05156443  0.88711352
H  -1.36004489  3.63388884  0.85931057
O   3.49430138 -3.08369392 -0.67913943
H   3.90371138 -2.78401655  0.18258948
H   3.19536454 -4.03410619 -0.59339124
O  -1.03956168 -2.90197318  6.45061583
H  -1.35852855 -2.98858493  7.39441580
H  -0.89697212 -3.81231683  6.06210322
O   4.70421154  2.86254949  0.55055041
H   3.76665456  2.83286709  0.89711374
H   4.76819975  3.54254389 -0.17986923
O  -2.44833034 -0.41134542  6.35915751
H  -2.19145816  0.36142141  5.77877134
H  -1.80744880 -1.16505140  6.21356196
O  -3.86934608 -3.57033914 -1.53512197
H  -3.48966163 -2.87154191 -2.14135807
H  -4.46256679 -4.18054860 -2.06022435
